********************************************************************************
Field Output Report, written Mon Jul 15 16:54:50 2019

Source 1
---------

   ODB: C:/Users/maduguls/Documents/Sashi_Kiran/BL2D/Code_Isotropic/auto_inp.odb
   Step: Step-1
   Frame: Increment      1: Step Time =   2.2200E-16

Loc 1 : Integration point values at beam < rectangular > < elset = ASSEMBLY_PART-1-1_SET-1 > from source 1 : Bottom, (fraction = -1.0)
Loc 2 : Integration point values at beam < rectangular > < elset = ASSEMBLY_PART-1-1_SET-1 > from source 1 : Top, (fraction = 1.0)

Output sorted by column "Element Label".

Field Output reported at integration points for part: PART-1-1

   Element Label             Int         S.Mises         S.Mises           S.S11           S.S11
                              Pt          @Loc 1          @Loc 2          @Loc 1          @Loc 2
-------------------------------------------------------------------------------------------------
               1               1         6.48587         7.37250        -6.48587        -7.37250
               2               1     2.91436E-03     198.313E-03    -2.91436E-03     198.313E-03
               3               1     128.414E-03     540.984E-03    -128.414E-03     540.984E-03
               4               1     860.209E-03         1.26568    -860.209E-03         1.26568
               5               1     151.778E-03         3.99075    -151.778E-03         3.99075
               6               1         1.26771     367.348E-03         1.26771    -367.348E-03
               7               1         6.03271     185.961E-03        -6.03271    -185.961E-03
               8               1         1.39318     746.225E-03         1.39318    -746.225E-03
               9               1     500.368E-03     318.238E-03    -500.368E-03    -318.238E-03
              10               1     793.528E-03         1.25094     793.528E-03        -1.25094
              11               1         1.32007     779.241E-03         1.32007    -779.241E-03
              12               1     155.203E-03     641.238E-03    -155.203E-03    -641.238E-03
              13               1         3.01102     462.267E-03         3.01102     462.267E-03
              14               1     282.811E-03     750.053E-03    -282.811E-03     750.053E-03
              15               1         2.89911     240.447E-03         2.89911     240.447E-03
              16               1     130.835E-03     703.049E-03    -130.835E-03    -703.049E-03
              17               1         1.36354     610.899E-03         1.36354    -610.899E-03
              18               1     856.597E-03     357.081E-03    -856.597E-03     357.081E-03
              19               1     153.541E-03     507.419E-03    -153.541E-03    -507.419E-03
              20               1     316.832E-03         1.09453     316.832E-03        -1.09453
              21               1         5.04615         1.02381        -5.04615        -1.02381
              22               1     512.691E-03         1.30785    -512.691E-03         1.30785
              23               1         3.57450     569.109E-03         3.57450     569.109E-03
              24               1         1.17463     160.191E-03         1.17463     160.191E-03
              25               1         2.41929     381.624E-03         2.41929     381.624E-03
              26               1         1.08366     536.138E-03        -1.08366    -536.138E-03
              27               1     830.859E-03         1.31498    -830.859E-03         1.31498
              28               1     862.404E-03     465.007E-03    -862.404E-03     465.007E-03
              29               1         1.38064     526.565E-03        -1.38064     526.565E-03
              30               1         1.29022         1.96194        -1.29022        -1.96194
              31               1     879.845E-03         1.24250    -879.845E-03         1.24250
              32               1         4.79463     615.859E-03         4.79463     615.859E-03
              33               1     860.756E-03         1.30798    -860.756E-03         1.30798
              34               1         1.27310     663.513E-03        -1.27310     663.513E-03
              35               1     843.292E-03         1.35096    -843.292E-03         1.35096
              36               1         1.27776     624.716E-03        -1.27776     624.716E-03
              37               1     160.251E-03         1.66425     160.251E-03         1.66425
              38               1     110.781E-03         1.18496    -110.781E-03         1.18496
              39               1     551.656E-03         1.22944    -551.656E-03         1.22944
              40               1     622.902E-03         1.56107    -622.902E-03         1.56107
              41               1         5.24349     990.241E-03         5.24349     990.241E-03
              42               1     795.234E-03         1.36364    -795.234E-03         1.36364
              43               1     943.756E-03         1.22355    -943.756E-03         1.22355
              44               1     103.330E-03     527.882E-03    -103.330E-03     527.882E-03
              45               1     901.855E-03     916.949E-03     901.855E-03    -916.949E-03
              46               1     681.165E-03     155.903E-03     681.165E-03    -155.903E-03
              47               1     741.293E-03         1.13621     741.293E-03        -1.13621
              48               1     655.994E-03     271.016E-03    -655.994E-03    -271.016E-03
              49               1         1.35362     711.026E-03         1.35362    -711.026E-03
              50               1     453.780E-03         1.49756    -453.780E-03        -1.49756
              51               1         1.35904     652.832E-03         1.35904    -652.832E-03
              52               1         1.50409     458.575E-03        -1.50409    -458.575E-03
              53               1         1.29156     933.465E-03         1.29156    -933.465E-03
              54               1     989.632E-03     249.700E-03    -989.632E-03    -249.700E-03
              55               1         1.60701         1.40350         1.60701        -1.40350
              56               1     259.860E-03         4.48277     259.860E-03         4.48277
              57               1         1.28539         1.20262        -1.28539        -1.20262
              58               1     565.061E-03     175.801E-03     565.061E-03    -175.801E-03
              59               1     282.419E-03     161.588E-03    -282.419E-03    -161.588E-03
              60               1     110.930E-03     6.68709E-03    -110.930E-03     6.68709E-03
              61               1         1.17578     103.467E-03         1.17578    -103.467E-03
              62               1     224.057E-03         4.58136     224.057E-03         4.58136
              63               1     883.611E-03         1.32862    -883.611E-03         1.32862
              64               1         1.08037     844.908E-03        -1.08037     844.908E-03
              65               1         3.06590     616.468E-03        -3.06590    -616.468E-03
              66               1         1.07190     806.804E-03        -1.07190     806.804E-03
              67               1     728.669E-03         1.22222     728.669E-03        -1.22222
              68               1     532.375E-03     575.385E-03     532.375E-03     575.385E-03
              69               1         1.23395     708.251E-03        -1.23395     708.251E-03
              70               1         1.28929     828.039E-03         1.28929    -828.039E-03
              71               1         1.29509     737.619E-03         1.29509    -737.619E-03
              72               1     209.375E-03         4.57165     209.375E-03         4.57165
              73               1         1.24690     742.729E-03        -1.24690     742.729E-03
              74               1         1.01586     73.5546E-03         1.01586    -73.5546E-03
              75               1     136.591E-03         3.82202     136.591E-03         3.82202
              76               1     895.536E-03     273.916E-03     895.536E-03    -273.916E-03
              77               1         1.21340     767.408E-03        -1.21340     767.408E-03
              78               1     377.102E-03     389.718E-03    -377.102E-03    -389.718E-03
              79               1         5.16769     982.841E-03         5.16769     982.841E-03
              80               1     122.663E-03     424.142E-03    -122.663E-03     424.142E-03
              81               1         4.07717     676.079E-03         4.07717     676.079E-03
              82               1     906.191E-03     819.271E-03    -906.191E-03     819.271E-03
              83               1         1.29129         1.16921         1.29129        -1.16921
              84               1         4.86083     838.811E-03        -4.86083    -838.811E-03
              85               1     726.700E-03         1.18518     726.700E-03        -1.18518
              86               1     907.605E-03         1.17905     907.605E-03        -1.17905
              87               1     69.8315E-03     42.6567E-03     69.8315E-03     42.6567E-03
              88               1     779.301E-03         1.20239     779.301E-03        -1.20239
              89               1         1.07809     148.869E-03         1.07809    -148.869E-03
              90               1     274.615E-03         2.38166    -274.615E-03        -2.38166
              91               1     433.132E-03         4.05863     433.132E-03         4.05863
              92               1         1.16216     49.6191E-03        -1.16216     49.6191E-03
              93               1     852.162E-03         1.33230    -852.162E-03         1.33230
              94               1     452.919E-03         1.93388     452.919E-03        -1.93388
              95               1     748.261E-03         1.21284     748.261E-03        -1.21284
              96               1         2.11356     368.464E-03         2.11356     368.464E-03
              97               1     799.953E-03         1.36813    -799.953E-03         1.36813
              98               1     232.313E-03     862.413E-03     232.313E-03    -862.413E-03
              99               1         1.75224         1.60354        -1.75224        -1.60354
             100               1         2.36845     550.388E-03        -2.36845    -550.388E-03
             101               1     626.806E-03         1.23229     626.806E-03        -1.23229
             102               1         1.18126     278.764E-03         1.18126    -278.764E-03
             103               1         1.14539         2.64011        -1.14539        -2.64011
             104               1     432.633E-03         1.26098     432.633E-03        -1.26098
             105               1         4.02615     136.785E-03         4.02615    -136.785E-03
             106               1     639.684E-03     269.641E-03    -639.684E-03    -269.641E-03
             107               1     861.050E-03     230.882E-03    -861.050E-03     230.882E-03
             108               1     249.596E-03         2.89594     249.596E-03         2.89594
             109               1     187.978E-03         2.33989     187.978E-03         2.33989
             110               1     776.675E-03     472.063E-03     776.675E-03     472.063E-03
             111               1         3.46741     612.495E-03        -3.46741    -612.495E-03
             112               1     15.1006E-03         1.02469     15.1006E-03         1.02469
             113               1         1.33144     759.043E-03         1.33144    -759.043E-03
             114               1     358.379E-03     491.261E-03    -358.379E-03    -491.261E-03
             115               1     914.477E-03     562.984E-03     914.477E-03     562.984E-03
             116               1     723.359E-03         1.27750     723.359E-03        -1.27750
             117               1         3.83513     623.631E-03         3.83513     623.631E-03
             118               1     53.5056E-03     58.4634E-03     53.5056E-03     58.4634E-03
             119               1     4.19004E-03     175.073E-03     4.19004E-03     175.073E-03
             120               1         1.75640         4.05480        -1.75640        -4.05480
             121               1     26.7140E-03         1.20176     26.7140E-03         1.20176
             122               1     911.280E-03     896.183E-03    -911.280E-03     896.183E-03
             123               1     912.679E-03     968.801E-03    -912.679E-03     968.801E-03
             124               1     69.4489E-03     10.9327E-03    -69.4489E-03     10.9327E-03
             125               1         5.05933         1.02411        -5.05933        -1.02411
             126               1         4.41872     253.317E-03         4.41872     253.317E-03
             127               1     974.834E-03     917.742E-03     974.834E-03    -917.742E-03
             128               1     209.913E-03         1.18909     209.913E-03         1.18909
             129               1         1.30588     139.425E-03        -1.30588     139.425E-03
             130               1     486.149E-03     542.690E-03     486.149E-03     542.690E-03
             131               1     758.484E-03         1.18840    -758.484E-03         1.18840
             132               1         1.28542     771.303E-03         1.28542    -771.303E-03
             133               1         1.01439     70.1870E-03         1.01439    -70.1870E-03
             134               1         1.31542     811.854E-03         1.31542    -811.854E-03
             135               1         4.57779     458.510E-03        -4.57779    -458.510E-03
             136               1     742.188E-03     902.681E-03     742.188E-03    -902.681E-03
             137               1     11.6747E-03     50.3318E-03    -11.6747E-03     50.3318E-03
             138               1     373.624E-03     513.204E-03    -373.624E-03    -513.204E-03
             139               1     897.547E-03     738.084E-03    -897.547E-03     738.084E-03
             140               1     119.155E-03     387.197E-03    -119.155E-03     387.197E-03
             141               1         1.35005     329.388E-03        -1.35005    -329.388E-03
             142               1     873.499E-03     562.423E-03    -873.499E-03     562.423E-03
             143               1         1.35308         1.40046        -1.35308         1.40046
             144               1         8.47175         5.58937        -8.47175        -5.58937
             145               1         1.35919     797.403E-03         1.35919    -797.403E-03
             146               1         4.76946     584.440E-03         4.76946     584.440E-03
             147               1         1.19556     950.340E-03         1.19556    -950.340E-03
             148               1         1.55243     382.459E-03        -1.55243    -382.459E-03
             149               1         1.85638     451.400E-03        -1.85638    -451.400E-03
             150               1         4.71872     555.444E-03         4.71872     555.444E-03
             151               1     457.347E-03         1.03943    -457.347E-03         1.03943
             152               1         1.37456         2.01521        -1.37456        -2.01521
             153               1         4.41341     243.865E-03         4.41341     243.865E-03
             154               1     174.714E-03         2.04358     174.714E-03         2.04358
             155               1     225.477E-03     45.4428E-03     225.477E-03    -45.4428E-03
             156               1     290.441E-03         4.50956     290.441E-03        -4.50956
             157               1     923.039E-03         1.59988     923.039E-03        -1.59988
             158               1     824.219E-03     911.829E-03     824.219E-03    -911.829E-03
             159               1     717.495E-03         1.26893     717.495E-03        -1.26893
             160               1         5.19762     989.624E-03         5.19762     989.624E-03
             161               1     758.449E-03     158.686E-03     758.449E-03     158.686E-03
             162               1         2.08523     501.152E-03        -2.08523    -501.152E-03
             163               1     212.461E-03     627.741E-03    -212.461E-03     627.741E-03
             164               1         2.70181     592.741E-03        -2.70181    -592.741E-03
             165               1     747.929E-03         1.18879     747.929E-03        -1.18879
             166               1         1.22647     341.011E-03         1.22647    -341.011E-03
             167               1     886.055E-03     652.848E-03    -886.055E-03     652.848E-03
             168               1         1.82119     189.269E-03        -1.82119     189.269E-03
             169               1         4.94021     989.696E-03        -4.94021    -989.696E-03
             170               1         1.24929     894.585E-03         1.24929    -894.585E-03
             171               1     400.622E-03         3.86196     400.622E-03         3.86196
             172               1         3.93527     565.158E-03        -3.93527    -565.158E-03
             173               1     532.875E-03         1.24318    -532.875E-03         1.24318
             174               1     952.244E-03         1.94383    -952.244E-03         1.94383
             175               1     910.787E-03         1.03635    -910.787E-03         1.03635
             176               1         1.32580     513.828E-03         1.32580    -513.828E-03
             177               1     940.855E-03     159.314E-03    -940.855E-03    -159.314E-03
             178               1     195.398E-03         4.33518    -195.398E-03        -4.33518
             179               1     20.8060E-03         1.65438     20.8060E-03         1.65438
             180               1         1.22229     914.087E-03         1.22229    -914.087E-03
             181               1         1.32976     780.195E-03         1.32976    -780.195E-03
             182               1     898.946E-03         1.15316    -898.946E-03         1.15316
             183               1         1.30433     661.783E-03         1.30433    -661.783E-03
             184               1         1.12367     467.563E-03         1.12367    -467.563E-03
             185               1         4.93174     726.578E-03        -4.93174    -726.578E-03
             186               1     202.009E-03     82.9031E-03    -202.009E-03     82.9031E-03
             187               1         4.84784     906.212E-03        -4.84784    -906.212E-03
             188               1         1.38341     688.249E-03         1.38341    -688.249E-03
             189               1         4.97958         1.00245        -4.97958        -1.00245
             190               1         1.39256     782.769E-03         1.39256    -782.769E-03
             191               1         4.89950     972.090E-03        -4.89950    -972.090E-03
             192               1     559.167E-03         1.48900    -559.167E-03        -1.48900
             193               1     825.307E-03         1.37052    -825.307E-03         1.37052
             194               1         1.38249     798.960E-03         1.38249    -798.960E-03
             195               1         5.03834         1.01780        -5.03834        -1.01780
             196               1         1.33613     360.217E-03        -1.33613     360.217E-03
             197               1         5.06217         1.02353        -5.06217        -1.02353
             198               1     559.067E-03         4.02444     559.067E-03        -4.02444
             199               1         1.28579     734.007E-03        -1.28579     734.007E-03
             200               1     810.604E-03         1.37316    -810.604E-03         1.37316
             201               1     620.711E-03         4.88670     620.711E-03         4.88670
             202               1         1.23431     750.193E-03        -1.23431     750.193E-03
             203               1     869.893E-03         1.27800    -869.893E-03         1.27800
             204               1     804.910E-03         1.37131    -804.910E-03         1.37131
             205               1         1.34480     569.178E-03         1.34480    -569.178E-03
             206               1         1.25460     652.329E-03        -1.25460     652.329E-03
             207               1     817.318E-03         1.37336    -817.318E-03         1.37336
             208               1     712.609E-03         1.25899     712.609E-03        -1.25899
             209               1     884.650E-03         1.30058     884.650E-03        -1.30058
             210               1     711.264E-03         1.23966     711.264E-03        -1.23966
             211               1     900.732E-03         1.15585     900.732E-03        -1.15585
             212               1         1.34121     743.637E-03         1.34121    -743.637E-03
             213               1     742.939E-03         1.81212    -742.939E-03        -1.81212
             214               1         5.15393     968.258E-03         5.15393     968.258E-03
             215               1         1.23234     698.772E-03        -1.23234     698.772E-03
             216               1     548.694E-03     229.278E-03    -548.694E-03    -229.278E-03
             217               1     678.447E-03         1.09471     678.447E-03        -1.09471
             218               1         5.13284     945.932E-03         5.13284     945.932E-03
             219               1         1.28340     728.748E-03        -1.28340     728.748E-03
             220               1     313.545E-03     926.425E-03    -313.545E-03    -926.425E-03
             221               1         1.38892     525.254E-03        -1.38892     525.254E-03
             222               1         5.06741     914.973E-03         5.06741     914.973E-03
             223               1         5.21952     990.447E-03         5.21952     990.447E-03
             224               1     107.718E-03         1.08224    -107.718E-03        -1.08224
             225               1         1.27555     720.162E-03        -1.27555     720.162E-03
             226               1         4.91962     870.384E-03         4.91962     870.384E-03
             227               1         1.33697     784.210E-03         1.33697    -784.210E-03
             228               1         4.66384     807.779E-03         4.66384     807.779E-03
             229               1         5.01296         1.01160        -5.01296        -1.01160
             230               1     307.116E-03     449.461E-03    -307.116E-03    -449.461E-03
             231               1     551.300E-03         1.09395    -551.300E-03        -1.09395
             232               1         1.03036     868.795E-03        -1.03036     868.795E-03
             233               1         1.02134     20.1592E-03         1.02134     20.1592E-03
             234               1         1.24139     672.414E-03        -1.24139     672.414E-03
             235               1         1.93585     987.974E-03         1.93585    -987.974E-03
             236               1     967.400E-03         1.44477     967.400E-03        -1.44477
             237               1     381.970E-03         1.60531    -381.970E-03        -1.60531
             238               1         2.71800     546.649E-03        -2.71800    -546.649E-03
             239               1     832.893E-03         1.32085    -832.893E-03         1.32085
             240               1         1.01185         2.91058        -1.01185        -2.91058
             241               1     211.942E-03     618.120E-03    -211.942E-03     618.120E-03
             242               1         1.16696     410.487E-03         1.16696     410.487E-03
             243               1         2.04629     172.734E-03         2.04629     172.734E-03
             244               1         6.64039         5.63820        -6.64039        -5.63820
             245               1         1.31338     900.257E-03         1.31338    -900.257E-03
             246               1     650.018E-03         1.54711    -650.018E-03         1.54711
             247               1     123.071E-03         3.83106     123.071E-03         3.83106
             248               1     323.850E-03     771.960E-03    -323.850E-03     771.960E-03
             249               1     112.706E-03     939.806E-03    -112.706E-03    -939.806E-03
             250               1     415.152E-03         1.21836    -415.152E-03        -1.21836
             251               1     955.025E-03     159.460E-03     955.025E-03     159.460E-03
             252               1     120.824E-03     810.076E-03    -120.824E-03    -810.076E-03
             253               1     263.018E-03     683.631E-03    -263.018E-03     683.631E-03
             254               1     223.751E-03     457.078E-03    -223.751E-03    -457.078E-03
             255               1         1.15550     145.234E-03         1.15550    -145.234E-03
             256               1     844.407E-03         1.34491    -844.407E-03         1.34491
             257               1         3.86196     400.622E-03         3.86196     400.622E-03
             258               1         2.91058         1.01185        -2.91058        -1.01185
             259               1     165.541E-03     948.465E-03    -165.541E-03    -948.465E-03
             260               1     101.007E-03     925.887E-03    -101.007E-03    -925.887E-03
             261               1     753.791E-03         1.08524     753.791E-03        -1.08524
             262               1     189.625E-03     576.870E-03    -189.625E-03    -576.870E-03
             263               1     533.519E-03         1.29727    -533.519E-03         1.29727
             264               1         1.71483     372.007E-03         1.71483     372.007E-03
             265               1     844.109E-03     267.728E-03     844.109E-03     267.728E-03
             266               1     171.816E-03         1.49799    -171.816E-03        -1.49799
             267               1     813.072E-03     861.090E-03    -813.072E-03    -861.090E-03
             268               1     552.432E-03         1.07708    -552.432E-03        -1.07708
             269               1     359.165E-03     857.079E-03     359.165E-03    -857.079E-03
             270               1         2.71619     415.823E-03         2.71619     415.823E-03
             271               1     710.146E-03         1.24900     710.146E-03        -1.24900
             272               1         3.29874     514.574E-03         3.29874     514.574E-03
             273               1         1.13500     218.233E-03         1.13500    -218.233E-03
             274               1     344.009E-03         1.90471    -344.009E-03        -1.90471
             275               1     450.066E-03         3.06750    -450.066E-03        -3.06750
             276               1     118.792E-03         1.25612    -118.792E-03        -1.25612
             277               1     447.676E-03         2.68530    -447.676E-03        -2.68530
             278               1         1.23455     687.314E-03        -1.23455     687.314E-03
             279               1     717.001E-03         1.23093     717.001E-03        -1.23093
             280               1         4.29780     724.910E-03         4.29780     724.910E-03
             281               1     231.012E-03         4.57696     231.012E-03         4.57696
             282               1         1.36125     949.350E-03        -1.36125     949.350E-03
             283               1         1.77131         4.12821         1.77131        -4.12821
             284               1     407.633E-03     165.869E-03    -407.633E-03    -165.869E-03
             285               1         1.27182     707.509E-03        -1.27182     707.509E-03
             286               1         4.49408     768.966E-03         4.49408     768.966E-03
             287               1         1.32726     519.158E-03         1.32726    -519.158E-03
             288               1         4.80597     841.517E-03         4.80597     841.517E-03
             289               1         1.35515     613.984E-03         1.35515    -613.984E-03
             290               1         1.51188     424.252E-03        -1.51188     424.252E-03
             291               1         1.27784     249.233E-03        -1.27784     249.233E-03
             292               1         1.52409     419.762E-03        -1.52409     419.762E-03
             293               1         1.04329         1.16828         1.04329        -1.16828
             294               1         5.00581     894.722E-03         5.00581     894.722E-03
             295               1         1.35807     685.236E-03         1.35807    -685.236E-03
             296               1         1.31783     585.427E-03        -1.31783     585.427E-03
             297               1     828.282E-03         1.19089     828.282E-03        -1.19089
             298               1         5.10801     931.721E-03         5.10801     931.721E-03
             299               1         1.34770     730.171E-03         1.34770    -730.171E-03
             300               1         1.37649     801.450E-03         1.37649    -801.450E-03
             301               1         1.37089     801.486E-03         1.37089    -801.486E-03
             302               1         5.02357         1.02295        -5.02357        -1.02295
             303               1         1.60531     381.970E-03        -1.60531    -381.970E-03
             304               1         5.14653     958.074E-03         5.14653     958.074E-03
             305               1         1.33533     752.808E-03         1.33533    -752.808E-03
             306               1         1.25657     731.818E-03        -1.25657     731.818E-03
             307               1     68.4656E-03         1.05958     68.4656E-03         1.05958
             308               1         5.15988     976.555E-03         5.15988     976.555E-03
             309               1         1.33005     763.796E-03         1.33005    -763.796E-03
             310               1         1.23899     716.764E-03        -1.23899     716.764E-03
             311               1         1.24691     724.713E-03        -1.24691     724.713E-03
             312               1         5.17985     987.134E-03         5.17985     987.134E-03
             313               1         1.32392     778.321E-03         1.32392    -778.321E-03
             314               1     280.858E-03         1.81140    -280.858E-03        -1.81140
             315               1         1.26997     849.634E-03         1.26997    -849.634E-03
             316               1         1.33629     624.451E-03         1.33629    -624.451E-03
             317               1         1.35262     793.653E-03         1.35262    -793.653E-03
             318               1     58.4650E-03         3.52546    -58.4650E-03        -3.52546
             319               1     482.458E-03         1.30622     482.458E-03        -1.30622
             320               1         1.27445     740.885E-03        -1.27445     740.885E-03
             321               1         1.36524     800.012E-03         1.36524    -800.012E-03
             322               1         1.33571     487.527E-03        -1.33571     487.527E-03
             323               1         4.78053     597.027E-03         4.78053     597.027E-03
             324               1         1.38937     719.730E-03         1.38937    -719.730E-03
             325               1         1.27971     728.253E-03        -1.27971     728.253E-03
             326               1         5.05495         1.02160        -5.05495        -1.02160
             327               1         1.28338     732.697E-03        -1.28338     732.697E-03
             328               1     834.214E-03         1.36335    -834.214E-03         1.36335
             329               1         1.38818     793.080E-03         1.38818    -793.080E-03
             330               1         1.27005     689.035E-03        -1.27005     689.035E-03
             331               1         1.39450     767.219E-03         1.39450    -767.219E-03
             332               1     425.126E-03         2.06432     425.126E-03        -2.06432
             333               1         1.20759     751.047E-03        -1.20759     751.047E-03
             334               1         1.04297         1.50915         1.04297        -1.50915
             335               1         1.31654     586.843E-03        -1.31654     586.843E-03
             336               1         4.86527     946.556E-03        -4.86527    -946.556E-03
             337               1         1.28585     630.029E-03        -1.28585     630.029E-03
             338               1     889.864E-03         1.20125    -889.864E-03         1.20125
             339               1         1.37505     652.069E-03         1.37505    -652.069E-03
             340               1     530.750E-03         2.69466    -530.750E-03        -2.69466
             341               1     431.098E-03         4.88168    -431.098E-03        -4.88168
             342               1     906.123E-03         1.09797    -906.123E-03         1.09797
             343               1         1.34740     564.698E-03         1.34740    -564.698E-03
             344               1         5.10069         8.08611        -5.10069        -8.08611
             345               1         1.40411         1.58576        -1.40411         1.58576
             346               1     950.138E-03     112.619E-03    -950.138E-03    -112.619E-03
             347               1     585.157E-03         2.39264     585.157E-03         2.39264
             348               1     385.937E-03     895.133E-03    -385.937E-03     895.133E-03
             349               1     295.096E-03         4.23424    -295.096E-03        -4.23424
             350               1     6.21214E-03         2.25860     6.21214E-03         2.25860
             351               1     474.697E-03         1.11584    -474.697E-03         1.11584
             352               1         6.72249         5.74014        -6.72249        -5.74014
             353               1         1.24466     565.492E-03        -1.24466     565.492E-03
             354               1         4.57555     644.347E-03        -4.57555    -644.347E-03
             355               1         1.13027     214.007E-03         1.13027    -214.007E-03
             356               1     756.599E-03     180.613E-03     756.599E-03    -180.613E-03
             357               1         2.36729     440.558E-03        -2.36729    -440.558E-03
             358               1     605.999E-03     785.718E-03     605.999E-03     785.718E-03
             359               1         3.41845     314.889E-03         3.41845     314.889E-03
             360               1     809.977E-03         1.27282    -809.977E-03         1.27282
             361               1         2.64454         1.15897        -2.64454        -1.15897
             362               1     141.672E-03     555.365E-03    -141.672E-03     555.365E-03
             363               1     822.293E-03     119.078E-03    -822.293E-03    -119.078E-03
             364               1         1.62050     394.261E-03        -1.62050    -394.261E-03
             365               1     644.478E-03     143.894E-03    -644.478E-03    -143.894E-03
             366               1         1.39698         1.33910         1.39698        -1.33910
             367               1     11.4671E-03     168.974E-03    -11.4671E-03     168.974E-03
             368               1         1.25288     166.783E-03        -1.25288    -166.783E-03
             369               1     884.670E-03     65.8330E-03    -884.670E-03     65.8330E-03
             370               1     386.541E-03     931.622E-03    -386.541E-03    -931.622E-03
             371               1     516.759E-03         1.25827     516.759E-03        -1.25827
             372               1         3.24941     61.5162E-03         3.24941     61.5162E-03
             373               1     828.631E-03         1.33720    -828.631E-03         1.33720
             374               1     44.5105E-03     440.155E-03    -44.5105E-03     440.155E-03
             375               1         1.27182     373.929E-03         1.27182    -373.929E-03
             376               1         3.65777     104.622E-03         3.65777     104.622E-03
             377               1     986.192E-03         1.14259    -986.192E-03         1.14259
             378               1     368.654E-03         1.26138    -368.654E-03        -1.26138
             379               1     569.792E-03         1.17505     569.792E-03        -1.17505
             380               1     833.521E-03         1.32640    -833.521E-03         1.32640
             381               1     653.873E-03         1.87974    -653.873E-03        -1.87974
             382               1         1.58080         2.49010        -1.58080        -2.49010
             383               1         1.18518     726.700E-03        -1.18518     726.700E-03
             384               1         1.08896     675.149E-03        -1.08896     675.149E-03
             385               1     653.751E-03     149.208E-03     653.751E-03    -149.208E-03
             386               1         3.65477     352.426E-03         3.65477     352.426E-03
             387               1         4.75047     570.519E-03         4.75047     570.519E-03
             388               1         3.83106     123.071E-03         3.83106     123.071E-03
             389               1         1.42348     829.802E-03         1.42348    -829.802E-03
             390               1     95.0308E-03         1.73647     95.0308E-03        -1.73647
             391               1         4.66712     669.746E-03        -4.66712    -669.746E-03
             392               1         4.82028     624.493E-03         4.82028     624.493E-03
             393               1     943.622E-03         1.25812    -943.622E-03         1.25812
             394               1         3.93488         1.11737        -3.93488         1.11737
             395               1         4.67327     536.402E-03        -4.67327    -536.402E-03
             396               1         2.40785     439.174E-03        -2.40785    -439.174E-03
             397               1         1.31265     888.461E-03        -1.31265     888.461E-03
             398               1         4.58560     592.513E-03        -4.58560    -592.513E-03
             399               1     9.09818E-03         1.99240     9.09818E-03         1.99240
             400               1     693.490E-03         1.19821     693.490E-03        -1.19821
             401               1     854.658E-03         3.79352    -854.658E-03        -3.79352
             402               1         1.50915         1.04297        -1.50915         1.04297
             403               1         1.26113     769.132E-03        -1.26113     769.132E-03
             404               1         1.34853     716.512E-03         1.34853    -716.512E-03
             405               1         5.26260     101.518E-03        -5.26260    -101.518E-03
             406               1         3.61556     813.935E-03        -3.61556     813.935E-03
             407               1         1.28804         3.40080         1.28804        -3.40080
             408               1         1.00903         1.09305        -1.00903         1.09305
             409               1     273.272E-03     904.857E-03    -273.272E-03     904.857E-03
             410               1         4.66986     538.829E-03         4.66986     538.829E-03
             411               1         1.18089     810.365E-03         1.18089    -810.365E-03
             412               1     737.770E-03         1.18440     737.770E-03        -1.18440
             413               1         3.87177     388.104E-03         3.87177     388.104E-03
             414               1         1.08702     507.927E-03        -1.08702     507.927E-03
             415               1         1.00354     359.947E-03         1.00354    -359.947E-03
             416               1         4.06711     420.852E-03         4.06711     420.852E-03
             417               1     174.559E-03     650.691E-03    -174.559E-03     650.691E-03
             418               1     31.3373E-03         2.76872     31.3373E-03         2.76872
             419               1         2.23481         1.18405        -2.23481        -1.18405
             420               1         1.25271     766.792E-03        -1.25271     766.792E-03
             421               1     236.929E-03         4.57016     236.929E-03         4.57016
             422               1         3.30804         3.29789        -3.30804        -3.29789
             423               1     751.990E-03         1.23574     751.990E-03        -1.23574
             424               1         1.06416     902.310E-03        -1.06416     902.310E-03
             425               1     59.7709E-03         3.57684    -59.7709E-03        -3.57684
             426               1         1.26722     767.948E-03        -1.26722     767.948E-03
             427               1     927.329E-03         1.25845    -927.329E-03         1.25845
             428               1         1.65442     377.037E-03        -1.65442    -377.037E-03
             429               1     20.9014E-03         1.13143    -20.9014E-03         1.13143
             430               1     131.172E-03         4.19773    -131.172E-03         4.19773
             431               1     597.939E-03     778.736E-03    -597.939E-03    -778.736E-03
             432               1         4.60017     520.247E-03         4.60017     520.247E-03
             433               1     184.314E-03         4.31372     184.314E-03         4.31372
             434               1     912.678E-03         1.28860    -912.678E-03         1.28860
             435               1     404.113E-03         1.52964    -404.113E-03        -1.52964
             436               1         4.70763     674.847E-03        -4.70763    -674.847E-03
             437               1         4.69081     673.061E-03        -4.69081    -673.061E-03
             438               1         1.37311     276.197E-03         1.37311     276.197E-03
             439               1         1.09556     314.790E-03        -1.09556     314.790E-03
             440               1         4.63740     664.409E-03        -4.63740    -664.409E-03
             441               1         1.29227     791.602E-03        -1.29227     791.602E-03
             442               1         2.35874         4.42765        -2.35874        -4.42765
             443               1     879.701E-03         1.32711    -879.701E-03         1.32711
             444               1         1.31498     830.859E-03         1.31498    -830.859E-03
             445               1         2.74852     260.469E-03        -2.74852    -260.469E-03
             446               1     822.704E-03         1.29831    -822.704E-03         1.29831
             447               1         1.35424     753.683E-03         1.35424    -753.683E-03
             448               1     963.553E-03         1.18534    -963.553E-03         1.18534
             449               1     175.729E-03     707.835E-03    -175.729E-03     707.835E-03
             450               1     274.543E-03     608.478E-03     274.543E-03    -608.478E-03
             451               1         4.71706     675.598E-03        -4.71706    -675.598E-03
             452               1         1.09358     332.329E-03        -1.09358    -332.329E-03
             453               1         2.66230     586.476E-03        -2.66230    -586.476E-03
             454               1         1.24391     596.153E-03        -1.24391     596.153E-03
             455               1         1.24351     760.668E-03        -1.24351     760.668E-03
             456               1     535.538E-03     34.9089E-03     535.538E-03     34.9089E-03
             457               1         1.08743     416.373E-03        -1.08743     416.373E-03
             458               1     472.654E-03         1.08460    -472.654E-03        -1.08460
             459               1     867.259E-03     450.543E-03    -867.259E-03    -450.543E-03
             460               1     375.211E-03         1.39594     375.211E-03        -1.39594
             461               1         1.07678     829.673E-03        -1.07678     829.673E-03
             462               1         1.23229     626.806E-03        -1.23229     626.806E-03
             463               1     44.1855E-03         2.69187     44.1855E-03        -2.69187
             464               1         1.29786         1.20391         1.29786        -1.20391
             465               1     273.916E-03     895.536E-03    -273.916E-03     895.536E-03
             466               1         1.75287     358.056E-03        -1.75287    -358.056E-03
             467               1     242.109E-03     32.9097E-03    -242.109E-03     32.9097E-03
             468               1     288.355E-03     765.070E-03    -288.355E-03    -765.070E-03
             469               1         3.46333     83.8018E-03         3.46333     83.8018E-03
             470               1         1.18587     450.868E-03         1.18587     450.868E-03
             471               1     7.04153E-03     260.590E-03    -7.04153E-03     260.590E-03
             472               1         2.11533     416.711E-03        -2.11533    -416.711E-03
             473               1         1.19586     649.020E-03        -1.19586     649.020E-03
             474               1         1.11753     197.537E-03        -1.11753     197.537E-03
             475               1     322.009E-03         1.93887    -322.009E-03        -1.93887
             476               1         1.18596     344.876E-03        -1.18596    -344.876E-03
             477               1         1.31065         3.30379         1.31065        -3.30379
             478               1     91.5586E-03         4.06896    -91.5586E-03         4.06896
             479               1     571.048E-03     250.580E-03    -571.048E-03     250.580E-03
             480               1     202.513E-03         2.39297    -202.513E-03         2.39297
             481               1         3.29034     325.581E-03        -3.29034    -325.581E-03
             482               1         1.99547         1.34536        -1.99547        -1.34536
             483               1     740.044E-03         1.38647    -740.044E-03        -1.38647
             484               1     324.248E-03         1.88821    -324.248E-03        -1.88821
             485               1     175.978E-03     470.622E-03     175.978E-03     470.622E-03
             486               1     898.062E-03         1.31234    -898.062E-03         1.31234
             487               1     873.347E-03         1.31027     873.347E-03        -1.31027
             488               1         4.71819     675.834E-03        -4.71819    -675.834E-03
             489               1     328.279E-03     236.030E-03    -328.279E-03    -236.030E-03
             490               1     39.1093E-03     142.035E-03     39.1093E-03     142.035E-03
             491               1     569.306E-03         1.32691    -569.306E-03         1.32691
             492               1     151.141E-03         3.97684     151.141E-03         3.97684
             493               1     99.5510E-03     935.026E-03     99.5510E-03     935.026E-03
             494               1     624.451E-03         1.33629    -624.451E-03         1.33629
             495               1     245.500E-03         4.54860     245.500E-03         4.54860
             496               1     326.311E-03         4.21245    -326.311E-03        -4.21245
             497               1     254.663E-03         4.50939     254.663E-03         4.50939
             498               1         4.15390         1.74840        -4.15390         1.74840
             499               1         3.76643     862.744E-03        -3.76643    -862.744E-03
             500               1     163.434E-03         4.11074     163.434E-03         4.11074
             501               1         1.30329     803.463E-03         1.30329    -803.463E-03
             502               1         4.11446         1.11249        -4.11446         1.11249
             503               1         1.30855     672.493E-03         1.30855    -672.493E-03
             504               1         1.35699     783.669E-03         1.35699    -783.669E-03
             505               1     672.305E-03         1.33444    -672.305E-03         1.33444
             506               1         1.35441     805.812E-03         1.35441    -805.812E-03
             507               1     487.527E-03         1.33571     487.527E-03        -1.33571
             508               1     762.922E-03         1.31502    -762.922E-03         1.31502
             509               1     966.546E-03         3.32991    -966.546E-03        -3.32991
             510               1     598.162E-03         1.49495    -598.162E-03        -1.49495
             511               1         1.43658     966.173E-03        -1.43658     966.173E-03
             512               1         1.27179     820.370E-03         1.27179    -820.370E-03
             513               1         4.80505     621.545E-03         4.80505     621.545E-03
             514               1     599.234E-03         1.25103     599.234E-03        -1.25103
             515               1         4.31392     211.343E-03        -4.31392    -211.343E-03
             516               1         4.71010     676.078E-03        -4.71010    -676.078E-03
             517               1     833.967E-03     884.915E-03    -833.967E-03    -884.915E-03
             518               1     428.622E-03     374.638E-03    -428.622E-03    -374.638E-03
             519               1         1.19821     693.490E-03        -1.19821     693.490E-03
             520               1         1.62314     249.777E-03        -1.62314    -249.777E-03
             521               1         1.65761     21.7826E-03         1.65761     21.7826E-03
             522               1     416.985E-03         1.48146     416.985E-03        -1.48146
             523               1     302.627E-03     104.447E-03    -302.627E-03    -104.447E-03
             524               1     834.586E-03         1.34264    -834.586E-03         1.34264
             525               1     339.350E-03         4.28134    -339.350E-03        -4.28134
             526               1     801.471E-03         1.23204    -801.471E-03         1.23204
             527               1     581.439E-03     254.177E-03     581.439E-03     254.177E-03
             528               1     9.89873E-03     256.121E-03    -9.89873E-03     256.121E-03
             529               1         1.12649         3.89999         1.12649        -3.89999
             530               1     449.461E-03     307.116E-03    -449.461E-03    -307.116E-03
             531               1     312.223E-03     432.553E-03    -312.223E-03    -432.553E-03
             532               1     758.945E-03         1.09180     758.945E-03        -1.09180
             533               1     740.410E-03         1.23910     740.410E-03        -1.23910
             534               1     339.078E-03         4.21995    -339.078E-03        -4.21995
             535               1         1.00468         2.32350        -1.00468        -2.32350
             536               1     513.086E-03         1.63030    -513.086E-03        -1.63030
             537               1     191.053E-03         3.09760    -191.053E-03        -3.09760
             538               1         1.31502     762.922E-03         1.31502    -762.922E-03
             539               1         1.22549     734.058E-03        -1.22549     734.058E-03
             540               1         4.38579     476.279E-03         4.38579     476.279E-03
             541               1     417.620E-03         1.08777     417.620E-03        -1.08777
             542               1     509.270E-03         1.08944     509.270E-03        -1.08944
             543               1         3.16577     277.030E-03         3.16577     277.030E-03
             544               1         4.50596     499.452E-03         4.50596     499.452E-03
             545               1         1.31378     627.041E-03         1.31378    -627.041E-03
             546               1     319.595E-03     755.937E-03     319.595E-03     755.937E-03
             547               1     51.3023E-03         1.16500     51.3023E-03        -1.16500
             548               1     667.384E-03     501.625E-03     667.384E-03     501.625E-03
             549               1         4.25339     341.673E-03        -4.25339    -341.673E-03
             550               1     982.061E-03         1.05408     982.061E-03        -1.05408
             551               1         1.04737         1.03322         1.04737        -1.03322
             552               1         1.08951     687.585E-03        -1.08951    -687.585E-03
             553               1         1.87598     264.911E-03        -1.87598     264.911E-03
             554               1         1.15585     900.732E-03        -1.15585     900.732E-03
             555               1         1.25870     810.480E-03        -1.25870     810.480E-03
             556               1     430.126E-03         2.48889    -430.126E-03         2.48889
             557               1         4.05480         1.75640        -4.05480        -1.75640
             558               1         4.38062     328.154E-03        -4.38062    -328.154E-03
             559               1     864.434E-03         1.27793    -864.434E-03         1.27793
             560               1         1.20768     31.7469E-03         1.20768     31.7469E-03
             561               1     118.299E-03         1.63465    -118.299E-03         1.63465
             562               1         1.23405     895.259E-03         1.23405    -895.259E-03
             563               1     45.7889E-03         3.92095     45.7889E-03        -3.92095
             564               1         4.66724     677.913E-03        -4.66724    -677.913E-03
             565               1         1.19894     758.051E-03        -1.19894     758.051E-03
             566               1         4.78761     607.630E-03         4.78761     607.630E-03
             567               1         1.28655     789.215E-03         1.28655    -789.215E-03
             568               1     159.175E-03         3.42452    -159.175E-03         3.42452
             569               1     216.555E-03         4.58094     216.555E-03         4.58094
             570               1     86.1802E-03     102.692E-03    -86.1802E-03    -102.692E-03
             571               1     555.710E-03     50.4649E-03     555.710E-03    -50.4649E-03
             572               1     586.476E-03         2.66230    -586.476E-03        -2.66230
             573               1         4.28223     181.057E-03         4.28223     181.057E-03
             574               1         4.69264     676.744E-03        -4.69264    -676.744E-03
             575               1         1.29831     822.704E-03         1.29831    -822.704E-03
             576               1     389.718E-03     377.102E-03    -389.718E-03    -377.102E-03
             577               1         1.24646     811.132E-03        -1.24646     811.132E-03
             578               1         1.21961     627.693E-03        -1.21961     627.693E-03
             579               1     873.913E-03         1.17025    -873.913E-03        -1.17025
             580               1     244.633E-03     838.966E-03     244.633E-03     838.966E-03
             581               1     179.081E-03     143.396E-03     179.081E-03     143.396E-03
             582               1         4.60453     656.383E-03        -4.60453    -656.383E-03
             583               1         1.21394     675.267E-03        -1.21394     675.267E-03
             584               1         4.37195     206.351E-03         4.37195     206.351E-03
             585               1     476.791E-03     575.543E-03    -476.791E-03    -575.543E-03
             586               1         4.88168     431.098E-03        -4.88168    -431.098E-03
             587               1         1.49899         1.02399        -1.49899         1.02399
             588               1     143.814E-03     750.359E-03     143.814E-03     750.359E-03
             589               1         1.26856     608.955E-03         1.26856    -608.955E-03
             590               1     13.3770E-03         1.99504     13.3770E-03         1.99504
             591               1     983.512E-03         1.21196    -983.512E-03         1.21196
             592               1         1.19668     216.633E-03         1.19668    -216.633E-03
             593               1     119.189E-03         2.17843    -119.189E-03        -2.17843
             594               1     630.005E-03     344.915E-03    -630.005E-03    -344.915E-03
             595               1         2.06016     4.29098E-03        -2.06016     4.29098E-03
             596               1         1.47194     544.149E-03        -1.47194    -544.149E-03
             597               1     175.801E-03     565.061E-03    -175.801E-03     565.061E-03
             598               1         3.23593         3.27341        -3.23593        -3.27341
             599               1     251.979E-03         2.77178    -251.979E-03        -2.77178
             600               1     655.501E-03         1.49376    -655.501E-03        -1.49376
             601               1     762.938E-03         1.09340     762.938E-03        -1.09340
             602               1         3.41093     326.774E-03         3.41093     326.774E-03
             603               1     52.9487E-03         3.01250     52.9487E-03         3.01250
             604               1     188.567E-03         1.94450    -188.567E-03        -1.94450
             605               1     953.319E-03         3.45436     953.319E-03        -3.45436
             606               1         1.25123     290.751E-03         1.25123    -290.751E-03
             607               1     492.688E-03     733.416E-03    -492.688E-03    -733.416E-03
             608               1         1.34814         1.10178        -1.34814        -1.10178
             609               1         2.89148         2.63367        -2.89148        -2.63367
             610               1     656.832E-03     319.500E-03    -656.832E-03     319.500E-03
             611               1     862.991E-03         1.27275    -862.991E-03         1.27275
             612               1     151.373E-03     117.736E-03     151.373E-03     117.736E-03
             613               1         2.81995     821.990E-03        -2.81995    -821.990E-03
             614               1         1.10919         1.05867         1.10919        -1.05867
             615               1     318.282E-03     474.320E-03    -318.282E-03    -474.320E-03
             616               1         4.42024     70.2183E-03        -4.42024    -70.2183E-03
             617               1         1.44402     184.584E-03        -1.44402    -184.584E-03
             618               1         1.10011         1.07088         1.10011        -1.07088
             619               1     692.041E-03         1.17455     692.041E-03        -1.17455
             620               1         1.06115         1.10999        -1.06115         1.10999
             621               1     857.270E-03         1.30267    -857.270E-03         1.30267
             622               1         1.48639     51.5901E-03        -1.48639    -51.5901E-03
             623               1     100.257E-03     228.270E-03    -100.257E-03    -228.270E-03
             624               1     127.385E-03     581.033E-03    -127.385E-03     581.033E-03
             625               1         1.02472         1.12324        -1.02472         1.12324
             626               1         1.23531     523.001E-03        -1.23531     523.001E-03
             627               1         1.08928     517.068E-03        -1.08928    -517.068E-03
             628               1     792.952E-03         1.24822     792.952E-03        -1.24822
             629               1         1.22611     886.129E-03         1.22611    -886.129E-03
             630               1         1.16284     644.997E-03        -1.16284     644.997E-03
             631               1     839.067E-03     240.356E-03     839.067E-03     240.356E-03
             632               1     836.267E-03     143.821E-03     836.267E-03    -143.821E-03
             633               1     575.295E-03     634.421E-03     575.295E-03     634.421E-03
             634               1         4.04515     95.2907E-03         4.04515    -95.2907E-03
             635               1         1.50172     599.467E-03        -1.50172    -599.467E-03
             636               1         1.10217     838.534E-03         1.10217    -838.534E-03
             637               1     502.062E-03         1.28736     502.062E-03        -1.28736
             638               1         3.01250     52.9487E-03         3.01250     52.9487E-03
             639               1         2.01343         1.34028        -2.01343        -1.34028
             640               1     481.230E-03         3.63358    -481.230E-03         3.63358
             641               1         1.39594     375.211E-03        -1.39594     375.211E-03
             642               1         1.51976     161.564E-03        -1.51976     161.564E-03
             643               1     286.859E-03         1.07322    -286.859E-03         1.07322
             644               1         1.20177     908.825E-03        -1.20177     908.825E-03
             645               1     932.996E-03         1.32051    -932.996E-03         1.32051
             646               1     164.867E-03         4.17203    -164.867E-03         4.17203
             647               1         1.32357     803.882E-03         1.32357    -803.882E-03
             648               1         4.33580     193.995E-03         4.33580     193.995E-03
             649               1     170.054E-03     663.138E-03    -170.054E-03    -663.138E-03
             650               1     661.783E-03         1.30433    -661.783E-03         1.30433
             651               1     425.477E-03     896.812E-03    -425.477E-03    -896.812E-03
             652               1         1.61495     505.844E-03        -1.61495    -505.844E-03
             653               1     931.622E-03     386.541E-03    -931.622E-03    -386.541E-03
             654               1     146.946E-03     958.525E-03    -146.946E-03    -958.525E-03
             655               1     477.199E-03     562.728E-03    -477.199E-03    -562.728E-03
             656               1     63.3031E-03         2.70605     63.3031E-03        -2.70605
             657               1         1.11931         2.85167        -1.11931         2.85167
             658               1         4.20719     167.496E-03         4.20719     167.496E-03
             659               1     871.642E-03         2.09253    -871.642E-03        -2.09253
             660               1     814.906E-03         1.27148     814.906E-03        -1.27148
             661               1         1.16391     922.527E-03         1.16391    -922.527E-03
             662               1         1.13566     874.262E-03         1.13566    -874.262E-03
             663               1         3.92015     1.92653E-03        -3.92015    -1.92653E-03
             664               1     495.384E-03     253.853E-03     495.384E-03    -253.853E-03
             665               1     182.737E-03         1.45124    -182.737E-03        -1.45124
             666               1         1.19240     382.428E-03        -1.19240     382.428E-03
             667               1         4.43857     263.383E-03         4.43857     263.383E-03
             668               1         1.27308     746.297E-03        -1.27308     746.297E-03
             669               1     139.278E-03     791.479E-03    -139.278E-03     791.479E-03
             670               1         1.85845     849.391E-03        -1.85845    -849.391E-03
             671               1     156.361E-03         3.57956    -156.361E-03         3.57956
             672               1     880.068E-03     57.8465E-03     880.068E-03    -57.8465E-03
             673               1     522.046E-03         1.27513    -522.046E-03        -1.27513
             674               1     156.148E-03         3.83117    -156.148E-03         3.83117
             675               1     386.802E-03     698.448E-03    -386.802E-03    -698.448E-03
             676               1         1.13559     776.039E-03        -1.13559     776.039E-03
             677               1     385.835E-03     567.651E-03     385.835E-03     567.651E-03
             678               1         1.23173         3.58355         1.23173        -3.58355
             679               1     289.598E-03     32.8245E-03     289.598E-03    -32.8245E-03
             680               1         1.04830         1.33192        -1.04830        -1.33192
             681               1     591.740E-03         1.25154    -591.740E-03         1.25154
             682               1     268.373E-03     499.122E-03     268.373E-03     499.122E-03
             683               1     269.009E-03     280.131E-03    -269.009E-03    -280.131E-03
             684               1     410.568E-03         1.17630    -410.568E-03         1.17630
             685               1     739.323E-03         1.14462     739.323E-03        -1.14462
             686               1         1.57181     898.316E-03        -1.57181     898.316E-03
             687               1     867.139E-03         1.58408     867.139E-03        -1.58408
             688               1     280.637E-03         1.56720    -280.637E-03        -1.56720
             689               1     950.243E-03         3.50542     950.243E-03        -3.50542
             690               1     902.313E-03         1.18516     902.313E-03        -1.18516
             691               1         1.29375         1.19936         1.29375        -1.19936
             692               1         4.10747     153.668E-03         4.10747     153.668E-03
             693               1     809.288E-03         3.28077    -809.288E-03         3.28077
             694               1     870.691E-03         1.31933    -870.691E-03         1.31933
             695               1         1.22515     838.627E-03         1.22515    -838.627E-03
             696               1     97.2776E-03         4.09567    -97.2776E-03         4.09567
             697               1         1.17882     832.736E-03         1.17882    -832.736E-03
             698               1     91.7171E-03     64.5060E-03    -91.7171E-03    -64.5060E-03
             699               1     23.8870E-03         4.05687     23.8870E-03        -4.05687
             700               1         1.09930         1.00671        -1.09930         1.00671
             701               1     740.309E-03         1.17801     740.309E-03        -1.17801
             702               1     795.671E-03         1.36611    -795.671E-03         1.36611
             703               1     440.802E-03     685.664E-03    -440.802E-03    -685.664E-03
             704               1     84.4157E-03         1.22909    -84.4157E-03         1.22909
             705               1     476.688E-03         1.22205     476.688E-03        -1.22205
             706               1     48.0001E-03         3.95737     48.0001E-03        -3.95737
             707               1         1.00109         1.16795        -1.00109         1.16795
             708               1     122.446E-03         2.10974     122.446E-03        -2.10974
             709               1         4.37110     328.407E-03        -4.37110    -328.407E-03
             710               1         1.60302     179.133E-03        -1.60302     179.133E-03
             711               1     435.361E-03     179.770E-03    -435.361E-03    -179.770E-03
             712               1     186.774E-03         1.98959    -186.774E-03        -1.98959
             713               1     132.963E-03     910.448E-03    -132.963E-03     910.448E-03
             714               1         1.93887     322.009E-03        -1.93887    -322.009E-03
             715               1         3.07211     190.751E-03         3.07211    -190.751E-03
             716               1         1.27736     605.251E-03         1.27736    -605.251E-03
             717               1     411.913E-03         2.58570     411.913E-03        -2.58570
             718               1         1.05524         1.09962         1.05524        -1.09962
             719               1     2.36952E-03         3.88832    -2.36952E-03        -3.88832
             720               1         1.33370     848.432E-03        -1.33370     848.432E-03
             721               1     814.545E-03         1.20070     814.545E-03        -1.20070
             722               1         4.36747     328.541E-03        -4.36747    -328.541E-03
             723               1         1.19523     842.528E-03        -1.19523     842.528E-03
             724               1         1.01022         1.14872         1.01022        -1.14872
             725               1     183.570E-03     293.271E-03    -183.570E-03    -293.271E-03
             726               1         2.85601         1.44455        -2.85601         1.44455
             727               1     432.739E-03         1.25848     432.739E-03        -1.25848
             728               1     521.273E-03         1.28214    -521.273E-03        -1.28214
             729               1     810.017E-03     95.5212E-03     810.017E-03    -95.5212E-03
             730               1         1.26152     824.938E-03        -1.26152     824.938E-03
             731               1     22.1129E-03         4.04483     22.1129E-03        -4.04483
             732               1     255.049E-03         2.72597    -255.049E-03        -2.72597
             733               1         1.21522     193.472E-03         1.21522    -193.472E-03
             734               1         3.24175     75.9853E-03         3.24175     75.9853E-03
             735               1         1.09331         1.02985        -1.09331         1.02985
             736               1     4.21941E-03         3.89808    -4.21941E-03        -3.89808
             737               1     348.590E-03     868.731E-03    -348.590E-03    -868.731E-03
             738               1     720.745E-03         1.15811     720.745E-03        -1.15811
             739               1     200.023E-03         3.01890     200.023E-03        -3.01890
             740               1         1.06407         1.05398        -1.06407         1.05398
             741               1     756.688E-03         1.39499     756.688E-03        -1.39499
             742               1     966.173E-03         1.43658     966.173E-03        -1.43658
             743               1     449.928E-03         1.51419    -449.928E-03         1.51419
             744               1     661.371E-03         2.34290    -661.371E-03         2.34290
             745               1         1.91204         1.03892        -1.91204        -1.03892
             746               1         1.42051         1.53592        -1.42051        -1.53592
             747               1     746.395E-03         1.74332    -746.395E-03        -1.74332
             748               1         1.24822     792.952E-03        -1.24822     792.952E-03
             749               1         4.20214     164.013E-03         4.20214    -164.013E-03
             750               1     877.046E-03     266.170E-03     877.046E-03     266.170E-03
             751               1     777.537E-03         3.26756    -777.537E-03         3.26756
             752               1     788.953E-03         1.23332    -788.953E-03         1.23332
             753               1         1.21073     946.123E-03         1.21073    -946.123E-03
             754               1         2.25616     1.17647E-03         2.25616    -1.17647E-03
             755               1     958.151E-03     153.806E-03     958.151E-03     153.806E-03
             756               1     799.921E-03         2.40777     799.921E-03        -2.40777
             757               1         3.66671     442.762E-03         3.66671    -442.762E-03
             758               1         4.26285     273.149E-03        -4.26285    -273.149E-03
             759               1         1.39219     900.903E-03        -1.39219     900.903E-03
             760               1     260.268E-03     877.060E-03     260.268E-03     877.060E-03
             761               1     591.640E-03         2.21810     591.640E-03        -2.21810
             762               1         1.40039     802.682E-03        -1.40039    -802.682E-03
             763               1     473.266E-03         1.09705    -473.266E-03        -1.09705
             764               1         1.28588     565.196E-03         1.28588    -565.196E-03
             765               1     394.215E-03     200.279E-03     394.215E-03     200.279E-03
             766               1         1.27005     378.289E-03         1.27005    -378.289E-03
             767               1         1.20391         1.29786        -1.20391         1.29786
             768               1         4.00478     541.311E-03        -4.00478     541.311E-03
             769               1         1.21076     730.722E-03         1.21076    -730.722E-03
             770               1         1.16675     688.606E-03        -1.16675     688.606E-03
             771               1         4.34439     331.244E-03        -4.34439    -331.244E-03
             772               1     44.1166E-03     571.965E-03    -44.1166E-03     571.965E-03
             773               1         1.92445         2.34236        -1.92445        -2.34236
             774               1     768.090E-03         1.16922     768.090E-03        -1.16922
             775               1     32.8992E-03     295.431E-03     32.8992E-03     295.431E-03
             776               1         1.23749     772.223E-03         1.23749    -772.223E-03
             777               1         1.35677     880.191E-03        -1.35677     880.191E-03
             778               1         1.24304     746.355E-03         1.24304    -746.355E-03
             779               1         1.27660     980.109E-03         1.27660    -980.109E-03
             780               1     855.539E-03         1.25589    -855.539E-03         1.25589
             781               1         4.31373     335.320E-03        -4.31373    -335.320E-03
             782               1     158.809E-03         4.21324    -158.809E-03         4.21324
             783               1     701.237E-03         1.16742     701.237E-03        -1.16742
             784               1     840.828E-03         1.19442     840.828E-03        -1.19442
             785               1         2.67925     669.670E-03         2.67925    -669.670E-03
             786               1         1.23366     779.017E-03        -1.23366     779.017E-03
             787               1     594.669E-03         1.35423     594.669E-03        -1.35423
             788               1     251.012E-03     100.148E-03     251.012E-03     100.148E-03
             789               1         1.24736     821.332E-03         1.24736    -821.332E-03
             790               1     525.512E-03         1.05422    -525.512E-03        -1.05422
             791               1         1.24066     73.9908E-03         1.24066    -73.9908E-03
             792               1         1.10973     86.8391E-03         1.10973     86.8391E-03
             793               1     918.570E-03         1.16736     918.570E-03        -1.16736
             794               1     863.349E-03         1.22399    -863.349E-03         1.22399
             795               1     91.2616E-03         4.05283    -91.2616E-03         4.05283
             796               1     359.950E-03         1.63729    -359.950E-03        -1.63729
             797               1     791.479E-03     139.278E-03     791.479E-03    -139.278E-03
             798               1     9.24581E-03         1.35540     9.24581E-03        -1.35540
             799               1         1.99240     9.09818E-03         1.99240     9.09818E-03
             800               1         3.98154     139.156E-03         3.98154     139.156E-03
             801               1         2.66176     552.175E-03        -2.66176    -552.175E-03
             802               1     143.371E-03         4.20828    -143.371E-03         4.20828
             803               1     916.919E-03         1.43973     916.919E-03        -1.43973
             804               1     354.563E-03     28.8650E-03     354.563E-03     28.8650E-03
             805               1     477.039E-03         3.60312    -477.039E-03         3.60312
             806               1     928.258E-03         1.29735    -928.258E-03         1.29735
             807               1         3.06033     446.436E-03         3.06033    -446.436E-03
             808               1     847.709E-03         1.24138    -847.709E-03         1.24138
             809               1         2.03019     44.3909E-03        -2.03019    -44.3909E-03
             810               1         1.28963     865.004E-03         1.28963    -865.004E-03
             811               1         1.06713     525.384E-03        -1.06713    -525.384E-03
             812               1     390.865E-03         1.58526     390.865E-03        -1.58526
             813               1         1.25361         1.47648        -1.25361        -1.47648
             814               1         4.50648     274.886E-03        -4.50648     274.886E-03
             815               1         1.91304     750.344E-03        -1.91304     750.344E-03
             816               1     23.9170E-03         4.03735     23.9170E-03        -4.03735
             817               1         1.23705         3.12218         1.23705        -3.12218
             818               1     793.098E-03         1.25580     793.098E-03        -1.25580
             819               1     1.92653E-03         3.92015    -1.92653E-03        -3.92015
             820               1         1.32711     879.701E-03         1.32711    -879.701E-03
             821               1     220.791E-03     201.201E-03     220.791E-03    -201.201E-03
             822               1         4.58094     216.555E-03         4.58094     216.555E-03
             823               1         1.17892     407.811E-03         1.17892    -407.811E-03
             824               1         4.31130     321.252E-03        -4.31130    -321.252E-03
             825               1         1.21559     798.219E-03        -1.21559     798.219E-03
             826               1         1.63465     118.299E-03         1.63465    -118.299E-03
             827               1         1.15268     791.196E-03        -1.15268     791.196E-03
             828               1         4.38440     327.610E-03        -4.38440    -327.610E-03
             829               1         1.32569     883.641E-03         1.32569    -883.641E-03
             830               1     127.365E-03         4.19029    -127.365E-03         4.19029
             831               1     482.778E-03         3.79682    -482.778E-03         3.79682
             832               1     873.946E-03         1.26257     873.946E-03        -1.26257
             833               1     750.434E-03         1.11679     750.434E-03        -1.11679
             834               1         1.28214     521.273E-03        -1.28214    -521.273E-03
             835               1         2.32687         1.01200        -2.32687        -1.01200
             836               1     965.889E-03         1.25049    -965.889E-03         1.25049
             837               1         1.31361     852.600E-03         1.31361    -852.600E-03
             838               1         1.16158     2.34956E-03         1.16158    -2.34956E-03
             839               1     11.0858E-03         1.17423    -11.0858E-03         1.17423
             840               1         1.03392     99.8697E-03         1.03392    -99.8697E-03
             841               1         2.54071     989.535E-03        -2.54071    -989.535E-03
             842               1         1.78969     802.336E-03        -1.78969    -802.336E-03
             843               1         3.57684     59.7709E-03        -3.57684    -59.7709E-03
             844               1         1.22864     674.473E-03        -1.22864     674.473E-03
             845               1         1.24468     283.118E-03         1.24468    -283.118E-03
             846               1     882.720E-03         1.37398     882.720E-03        -1.37398
             847               1     778.736E-03     597.939E-03    -778.736E-03    -597.939E-03
             848               1     253.955E-03     319.229E-03    -253.955E-03    -319.229E-03
             849               1         1.26257     873.946E-03        -1.26257     873.946E-03
             850               1         1.17008     879.609E-03        -1.17008     879.609E-03
             851               1         1.25085     989.681E-03         1.25085    -989.681E-03
             852               1     14.1425E-03         1.12250    -14.1425E-03         1.12250
             853               1     188.304E-03         2.39582    -188.304E-03         2.39582
             854               1         1.37497     432.549E-03        -1.37497    -432.549E-03
             855               1     509.358E-03     322.999E-03    -509.358E-03    -322.999E-03
             856               1         1.16577     880.413E-03         1.16577    -880.413E-03
             857               1     838.966E-03     244.633E-03     838.966E-03     244.633E-03
             858               1     47.8176E-03     873.163E-03     47.8176E-03     873.163E-03
             859               1     836.215E-03         1.26899     836.215E-03        -1.26899
             860               1     94.5572E-03         1.03004    -94.5572E-03         1.03004
             861               1         3.95588     4.73624E-03        -3.95588     4.73624E-03
             862               1         3.59288     170.955E-03         3.59288    -170.955E-03
             863               1         1.03892         1.91204        -1.03892        -1.91204
             864               1         3.06311     173.452E-03         3.06311    -173.452E-03
             865               1     704.250E-03         1.38089    -704.250E-03        -1.38089
             866               1         2.06460         1.87275        -2.06460        -1.87275
             867               1         1.19096         1.72317        -1.19096        -1.72317
             868               1     912.038E-03         1.16536    -912.038E-03         1.16536
             869               1         1.44533     421.543E-03        -1.44533    -421.543E-03
             870               1     260.553E-03     4.66096E-03     260.553E-03    -4.66096E-03
             871               1     134.362E-03     390.494E-03    -134.362E-03    -390.494E-03
             872               1     558.970E-03         1.13374    -558.970E-03         1.13374
             873               1         2.13480     635.495E-03         2.13480    -635.495E-03
             874               1     656.853E-03         1.48408    -656.853E-03        -1.48408
             875               1     861.054E-03         1.31280     861.054E-03        -1.31280
             876               1         2.03148         1.33958         2.03148        -1.33958
             877               1     220.412E-03         1.23398    -220.412E-03         1.23398
             878               1     789.680E-03     366.337E-03     789.680E-03     366.337E-03
             879               1     112.542E-03         1.21410    -112.542E-03         1.21410
             880               1         1.58986     960.868E-03        -1.58986     960.868E-03
             881               1     731.069E-03         1.83211     731.069E-03        -1.83211
             882               1         1.70448     132.225E-03        -1.70448     132.225E-03
             883               1         1.27282     504.881E-03         1.27282    -504.881E-03
             884               1     603.419E-03         1.18115     603.419E-03        -1.18115
             885               1     804.871E-03         1.16064     804.871E-03        -1.16064
             886               1     951.251E-03         1.27633    -951.251E-03         1.27633
             887               1         1.28072     823.119E-03        -1.28072     823.119E-03
             888               1     981.856E-03         1.28244    -981.856E-03         1.28244
             889               1     804.982E-03         1.21485     804.982E-03        -1.21485
             890               1     779.891E-03         1.10205     779.891E-03        -1.10205
             891               1     832.736E-03         1.17882    -832.736E-03         1.17882
             892               1     17.5244E-03     81.4563E-03    -17.5244E-03     81.4563E-03
             893               1     896.461E-03     824.565E-03     896.461E-03    -824.565E-03
             894               1         1.82748         1.63331        -1.82748        -1.63331
             895               1     243.235E-03     52.8281E-03    -243.235E-03    -52.8281E-03
             896               1     937.676E-03         1.31563    -937.676E-03         1.31563
             897               1         1.68087     545.316E-03        -1.68087    -545.316E-03
             898               1         1.34443     900.332E-03        -1.34443     900.332E-03
             899               1         1.40733     596.381E-03        -1.40733     596.381E-03
             900               1         3.26490     182.289E-03         3.26490    -182.289E-03
             901               1         2.85523     181.618E-03         2.85523    -181.618E-03
             902               1         1.20202     103.595E-03         1.20202    -103.595E-03
             903               1         3.95737     48.0001E-03        -3.95737     48.0001E-03
             904               1         1.24366     827.645E-03        -1.24366     827.645E-03
             905               1         3.55119     475.758E-03         3.55119    -475.758E-03
             906               1     886.108E-03         1.34867     886.108E-03        -1.34867
             907               1         1.17512     826.020E-03        -1.17512     826.020E-03
             908               1     10.3151E-03     267.892E-03    -10.3151E-03     267.892E-03
             909               1         1.37559     569.332E-03        -1.37559     569.332E-03
             910               1     745.837E-03         1.75163    -745.837E-03        -1.75163
             911               1         1.21246     803.822E-03        -1.21246     803.822E-03
             912               1         1.12458     494.089E-03        -1.12458     494.089E-03
             913               1         1.22019     976.540E-03         1.22019    -976.540E-03
             914               1     479.082E-03     140.272E-03     479.082E-03     140.272E-03
             915               1         1.30744     601.195E-03        -1.30744    -601.195E-03
             916               1     55.0972E-03         2.18015     55.0972E-03        -2.18015
             917               1     613.552E-03         1.54448    -613.552E-03        -1.54448
             918               1     890.736E-03         1.26932    -890.736E-03         1.26932
             919               1     694.113E-03     922.717E-03    -694.113E-03    -922.717E-03
             920               1         1.14372     846.455E-03         1.14372    -846.455E-03
             921               1         1.21485     804.982E-03        -1.21485     804.982E-03
             922               1         1.87405     420.042E-03        -1.87405     420.042E-03
             923               1         1.70438     156.754E-03        -1.70438     156.754E-03
             924               1     981.770E-03         2.53747    -981.770E-03        -2.53747
             925               1     302.486E-03     251.987E-03    -302.486E-03    -251.987E-03
             926               1     984.472E-03         1.30907    -984.472E-03         1.30907
             927               1     363.795E-03         2.28536     363.795E-03        -2.28536
             928               1     253.086E-03         2.37310     253.086E-03        -2.37310
             929               1         1.96187     10.8315E-03        -1.96187     10.8315E-03
             930               1     874.416E-03     422.220E-03    -874.416E-03    -422.220E-03
             931               1         1.14816     848.449E-03         1.14816    -848.449E-03
             932               1     913.811E-03         1.30093    -913.811E-03         1.30093
             933               1     146.111E-03     776.100E-03    -146.111E-03    -776.100E-03
             934               1         1.29415         3.35140         1.29415        -3.35140
             935               1     340.742E-03         1.56450    -340.742E-03        -1.56450
             936               1     123.402E-03     532.685E-03     123.402E-03     532.685E-03
             937               1         3.91927     72.7450E-03        -3.91927     72.7450E-03
             938               1         1.21375         1.69541        -1.21375        -1.69541
             939               1         1.03642     231.043E-03         1.03642     231.043E-03
             940               1         1.19561     628.061E-03        -1.19561     628.061E-03
             941               1         1.44025     68.4389E-03        -1.44025     68.4389E-03
             942               1         1.46810     414.819E-03        -1.46810     414.819E-03
             943               1         1.04789     8.64810E-03         1.04789    -8.64810E-03
             944               1     504.881E-03         1.27282    -504.881E-03         1.27282
             945               1         1.50730     331.918E-03        -1.50730     331.918E-03
             946               1     586.202E-03         1.34125     586.202E-03        -1.34125
             947               1     336.458E-03         1.83284    -336.458E-03         1.83284
             948               1     178.320E-03         1.01074     178.320E-03         1.01074
             949               1         1.29837     939.672E-03        -1.29837     939.672E-03
             950               1     732.894E-03         1.08090     732.894E-03        -1.08090
             951               1     495.779E-03     680.787E-03     495.779E-03     680.787E-03
             952               1         3.25282     165.357E-03         3.25282    -165.357E-03
             953               1     507.641E-03         1.36880     507.641E-03        -1.36880
             954               1         1.26265     509.693E-03         1.26265    -509.693E-03
             955               1     596.324E-03     522.167E-03     596.324E-03     522.167E-03
             956               1         4.03019     20.3328E-03        -4.03019     20.3328E-03
             957               1     766.393E-03         3.29870     766.393E-03        -3.29870
             958               1     530.333E-03     322.807E-03     530.333E-03     322.807E-03
             959               1         3.45406     877.554E-03         3.45406    -877.554E-03
             960               1         1.85599     264.989E-03        -1.85599    -264.989E-03
             961               1     48.7199E-03     955.463E-03    -48.7199E-03     955.463E-03
             962               1         4.20828     143.371E-03         4.20828    -143.371E-03
             963               1     93.2432E-03     29.6141E-03     93.2432E-03    -29.6141E-03
             964               1         4.05653     22.9501E-03        -4.05653     22.9501E-03
             965               1         1.76015         1.28003        -1.76015        -1.28003
             966               1     821.044E-03         1.17408    -821.044E-03         1.17408
             967               1         1.17011     984.804E-03         1.17011    -984.804E-03
             968               1         1.11407     191.077E-03         1.11407    -191.077E-03
             969               1         3.58811     375.182E-03        -3.58811     375.182E-03
             970               1     124.860E-03         2.15135     124.860E-03        -2.15135
             971               1         3.63358     481.230E-03         3.63358    -481.230E-03
             972               1     189.486E-03     395.070E-03     189.486E-03     395.070E-03
             973               1         1.23720     898.161E-03         1.23720    -898.161E-03
             974               1         4.21260     151.214E-03         4.21260    -151.214E-03
             975               1         1.03879         2.54818         1.03879        -2.54818
             976               1     381.342E-03         3.73506     381.342E-03        -3.73506
             977               1     381.720E-03         3.72980     381.720E-03        -3.72980
             978               1         1.27748     590.008E-03         1.27748    -590.008E-03
             979               1         1.05720         1.60733         1.05720        -1.60733
             980               1     445.644E-03     849.164E-03    -445.644E-03    -849.164E-03
             981               1     433.019E-03         3.61611     433.019E-03        -3.61611
             982               1         1.56720     280.637E-03        -1.56720    -280.637E-03
             983               1     702.978E-03     489.503E-03     702.978E-03     489.503E-03
             984               1     356.089E-03         3.56551     356.089E-03        -3.56551
             985               1         1.15210     964.293E-03        -1.15210     964.293E-03
             986               1     534.512E-03         3.84735    -534.512E-03         3.84735
             987               1         3.95994     268.310E-03        -3.95994     268.310E-03
             988               1     249.004E-03         2.32806     249.004E-03        -2.32806
             989               1         1.57441     280.221E-03         1.57441    -280.221E-03
             990               1     883.182E-03     552.770E-03     883.182E-03     552.770E-03
             991               1     426.803E-03         1.39413     426.803E-03        -1.39413
             992               1         1.23878     215.173E-03         1.23878    -215.173E-03
             993               1         1.00315         1.31290        -1.00315         1.31290
             994               1     333.052E-03         3.54852     333.052E-03        -3.54852
             995               1         1.46511     501.960E-03        -1.46511     501.960E-03
             996               1     61.8224E-03     942.922E-03    -61.8224E-03     942.922E-03
             997               1         1.24768     487.328E-03         1.24768    -487.328E-03
             998               1     264.525E-03     935.637E-03     264.525E-03     935.637E-03
             999               1         1.04872         1.11522        -1.04872         1.11522
            1000               1         1.52340     829.768E-03        -1.52340     829.768E-03
            1001               1     277.441E-03         1.37896     277.441E-03        -1.37896
            1002               1         1.30332     871.593E-03         1.30332    -871.593E-03
            1003               1         2.63090     187.767E-03         2.63090    -187.767E-03
            1004               1         1.15713         1.06229        -1.15713         1.06229
            1005               1     274.652E-03         1.71586     274.652E-03        -1.71586
            1006               1     659.182E-03         1.22915    -659.182E-03         1.22915
            1007               1     10.8315E-03         1.96187     10.8315E-03        -1.96187
            1008               1         1.26066     408.916E-03         1.26066    -408.916E-03
            1009               1     589.753E-03         1.26252    -589.753E-03        -1.26252
            1010               1     303.535E-03     470.340E-03    -303.535E-03    -470.340E-03
            1011               1         3.42452     159.175E-03         3.42452    -159.175E-03
            1012               1     128.111E-03     851.515E-03    -128.111E-03     851.515E-03
            1013               1         1.28657     768.143E-03         1.28657    -768.143E-03
            1014               1         1.06271     774.624E-03        -1.06271     774.624E-03
            1015               1     167.782E-03         1.40963     167.782E-03        -1.40963
            1016               1         2.39297     202.513E-03         2.39297    -202.513E-03
            1017               1     241.646E-03         1.60205    -241.646E-03        -1.60205
            1018               1     683.243E-03         1.12033     683.243E-03        -1.12033
            1019               1         2.75764         1.32969        -2.75764         1.32969
            1020               1     475.758E-03         3.55119    -475.758E-03         3.55119
            1021               1         1.23985     831.312E-03        -1.23985     831.312E-03
            1022               1     410.485E-03         3.68427     410.485E-03        -3.68427
            1023               1     833.054E-03     204.155E-03     833.054E-03     204.155E-03
            1024               1     476.231E-03         3.47379    -476.231E-03         3.47379
            1025               1     356.587E-03     771.196E-03     356.587E-03     771.196E-03
            1026               1     47.3045E-03         1.47449    -47.3045E-03        -1.47449
            1027               1     688.606E-03         1.16675     688.606E-03        -1.16675
            1028               1     725.065E-03         1.30098    -725.065E-03         1.30098
            1029               1     454.522E-03     924.674E-03    -454.522E-03    -924.674E-03
            1030               1         1.11448     858.366E-03         1.11448    -858.366E-03
            1031               1         1.32122     443.110E-03        -1.32122     443.110E-03
            1032               1     25.4081E-03     339.992E-03    -25.4081E-03     339.992E-03
            1033               1     502.587E-03         3.83389    -502.587E-03         3.83389
            1034               1     891.784E-03         1.22480    -891.784E-03         1.22480
            1035               1     481.702E-03         3.65057    -481.702E-03         3.65057
            1036               1     655.011E-03         2.01568    -655.011E-03        -2.01568
            1037               1     221.946E-03     945.960E-03    -221.946E-03     945.960E-03
            1038               1     306.078E-03     241.673E-03    -306.078E-03    -241.673E-03
            1039               1         1.22987     589.795E-03         1.22987    -589.795E-03
            1040               1         1.18115     603.419E-03        -1.18115     603.419E-03
            1041               1     83.5141E-03         1.13039    -83.5141E-03         1.13039
            1042               1         1.26394     862.420E-03        -1.26394     862.420E-03
            1043               1     632.877E-03     610.104E-03    -632.877E-03    -610.104E-03
            1044               1         3.43853     175.399E-03         3.43853    -175.399E-03
            1045               1         1.26191     416.559E-03         1.26191    -416.559E-03
            1046               1         3.99707     13.5857E-03        -3.99707     13.5857E-03
            1047               1         1.07841     802.679E-03        -1.07841     802.679E-03
            1048               1     944.300E-03         1.17641    -944.300E-03         1.17641
            1049               1         1.17579     909.099E-03         1.17579    -909.099E-03
            1050               1         3.90825     158.848E-03         3.90825    -158.848E-03
            1051               1         1.20433     713.236E-03         1.20433    -713.236E-03
            1052               1         1.16431         1.22766        -1.16431        -1.22766
            1053               1     824.615E-03         1.17523     824.615E-03        -1.17523
            1054               1     461.164E-03         1.68421    -461.164E-03        -1.68421
            1055               1         3.09426     752.367E-03         3.09426    -752.367E-03
            1056               1         4.05283     91.2616E-03         4.05283    -91.2616E-03
            1057               1         1.23836     870.876E-03         1.23836    -870.876E-03
            1058               1         1.08893     703.374E-03        -1.08893     703.374E-03
            1059               1     464.286E-03     769.497E-03     464.286E-03     769.497E-03
            1060               1     941.742E-03         1.22118     941.742E-03        -1.22118
            1061               1         1.65412     292.284E-03        -1.65412    -292.284E-03
            1062               1         1.33444     672.305E-03         1.33444    -672.305E-03
            1063               1     847.439E-03         1.14878     847.439E-03        -1.14878
            1064               1     648.894E-03         1.45699    -648.894E-03        -1.45699
            1065               1         3.40080         1.28804        -3.40080         1.28804
            1066               1     751.618E-03     792.179E-03     751.618E-03    -792.179E-03
            1067               1     887.434E-03         1.21737    -887.434E-03         1.21737
            1068               1         1.31563     937.676E-03         1.31563    -937.676E-03
            1069               1         4.05687     23.8870E-03        -4.05687     23.8870E-03
            1070               1     309.754E-03     606.509E-03     309.754E-03     606.509E-03
            1071               1     966.152E-03     33.6911E-03     966.152E-03     33.6911E-03
            1072               1     792.641E-03         1.18470    -792.641E-03         1.18470
            1073               1         1.11448         1.06929         1.11448        -1.06929
            1074               1     898.402E-03         1.46076     898.402E-03        -1.46076
            1075               1     612.536E-03         3.61390     612.536E-03        -3.61390
            1076               1         4.21324     158.809E-03         4.21324    -158.809E-03
            1077               1         1.22095         1.01358         1.22095        -1.01358
            1078               1     917.627E-03         1.40045     917.627E-03        -1.40045
            1079               1         1.12033     683.243E-03        -1.12033     683.243E-03
            1080               1     650.846E-03         2.87299     650.846E-03        -2.87299
            1081               1     867.932E-03         2.01031    -867.932E-03         2.01031
            1082               1     679.083E-03         2.52919    -679.083E-03         2.52919
            1083               1         1.17341         3.01531         1.17341        -3.01531
            1084               1     491.536E-03     614.091E-03    -491.536E-03    -614.091E-03
            1085               1         1.24432     863.177E-03        -1.24432     863.177E-03
            1086               1     880.785E-03         1.20299    -880.785E-03         1.20299
            1087               1     498.432E-03         3.82682    -498.432E-03         3.82682
            1088               1         2.55795     330.904E-03        -2.55795    -330.904E-03
            1089               1         3.72492     399.417E-03        -3.72492     399.417E-03
            1090               1     883.821E-03         1.16096     883.821E-03        -1.16096
            1091               1     554.607E-03         1.63949    -554.607E-03        -1.63949
            1092               1     873.872E-03     563.510E-03     873.872E-03     563.510E-03
            1093               1         3.29870     766.393E-03        -3.29870     766.393E-03
            1094               1     259.911E-03         1.40427     259.911E-03        -1.40427
            1095               1     579.605E-03         1.21628    -579.605E-03        -1.21628
            1096               1         1.06263     548.044E-03        -1.06263    -548.044E-03
            1097               1     441.848E-03     978.939E-03    -441.848E-03    -978.939E-03
            1098               1         3.66532     483.246E-03         3.66532    -483.246E-03
            1099               1         1.47171     562.079E-03        -1.47171    -562.079E-03
            1100               1     522.167E-03     596.324E-03     522.167E-03     596.324E-03
            1101               1         1.66970     461.857E-03        -1.66970    -461.857E-03
            1102               1         1.31746     527.112E-03         1.31746    -527.112E-03
            1103               1         2.39582     188.304E-03         2.39582    -188.304E-03
            1104               1     170.159E-03         1.41492     170.159E-03        -1.41492
            1105               1     905.624E-03     400.476E-03     905.624E-03     400.476E-03
            1106               1     632.582E-03     560.266E-03     632.582E-03     560.266E-03
            1107               1     336.031E-03     239.988E-03    -336.031E-03    -239.988E-03
            1108               1     190.300E-03     408.180E-03     190.300E-03    -408.180E-03
            1109               1     897.576E-03     990.228E-03    -897.576E-03    -990.228E-03
            1110               1     828.654E-03         1.81965    -828.654E-03        -1.81965
            1111               1     536.223E-03     136.342E-03     536.223E-03     136.342E-03
            1112               1         2.13286     352.702E-03        -2.13286     352.702E-03
            1113               1         1.70020     436.995E-03        -1.70020    -436.995E-03
            1114               1         1.69371     440.531E-03        -1.69371    -440.531E-03
            1115               1     886.538E-03         1.16962    -886.538E-03         1.16962
            1116               1     834.894E-03         1.01158    -834.894E-03        -1.01158
            1117               1     43.2439E-03     449.968E-03     43.2439E-03    -449.968E-03
            1118               1     503.057E-03         1.44371     503.057E-03        -1.44371
            1119               1         3.21629     453.950E-03         3.21629    -453.950E-03
            1120               1         3.18031         1.47878        -3.18031         1.47878
            1121               1     981.880E-03     887.648E-03     981.880E-03    -887.648E-03
            1122               1         1.44362     653.216E-03        -1.44362    -653.216E-03
            1123               1     3.06322E-03         1.04409    -3.06322E-03         1.04409
            1124               1     868.731E-03     348.590E-03    -868.731E-03    -348.590E-03
            1125               1     86.4132E-03         1.23414    -86.4132E-03         1.23414
            1126               1     832.146E-03         1.18125     832.146E-03        -1.18125
            1127               1     340.314E-03     407.102E-03    -340.314E-03    -407.102E-03
            1128               1     198.385E-03         1.18961    -198.385E-03         1.18961
            1129               1     812.232E-03     774.453E-03    -812.232E-03    -774.453E-03
            1130               1     813.169E-03         1.18753    -813.169E-03         1.18753
            1131               1         1.51986     246.843E-03        -1.51986     246.843E-03
            1132               1         2.34469     80.7448E-03        -2.34469     80.7448E-03
            1133               1     188.067E-03     191.121E-03    -188.067E-03    -191.121E-03
            1134               1         1.06509         1.08992         1.06509        -1.08992
            1135               1         1.30443     518.402E-03         1.30443    -518.402E-03
            1136               1     337.345E-03     826.199E-03     337.345E-03     826.199E-03
            1137               1         1.39597     584.951E-03        -1.39597     584.951E-03
            1138               1         2.10974     122.446E-03        -2.10974     122.446E-03
            1139               1     218.605E-03     588.395E-03     218.605E-03     588.395E-03
            1140               1         1.38808     967.683E-03        -1.38808     967.683E-03
            1141               1         1.13017     849.063E-03        -1.13017     849.063E-03
            1142               1     914.469E-03         1.09118     914.469E-03        -1.09118
            1143               1     848.653E-03         1.20654     848.653E-03        -1.20654
            1144               1         1.04170     961.782E-03         1.04170    -961.782E-03
            1145               1         1.18708     773.931E-03         1.18708    -773.931E-03
            1146               1     130.933E-03         1.90781     130.933E-03        -1.90781
            1147               1         1.61222     289.188E-03        -1.61222    -289.188E-03
            1148               1         1.19838         3.07416         1.19838        -3.07416
            1149               1     132.900E-03     159.558E-03    -132.900E-03    -159.558E-03
            1150               1     77.1372E-03     416.429E-03    -77.1372E-03    -416.429E-03
            1151               1         1.03764     830.249E-03         1.03764    -830.249E-03
            1152               1         1.33628     910.199E-03        -1.33628     910.199E-03
            1153               1         3.69758     372.111E-03        -3.69758     372.111E-03
            1154               1     367.898E-03         1.77834     367.898E-03        -1.77834
            1155               1         2.69171     416.999E-03         2.69171    -416.999E-03
            1156               1     670.044E-03         3.16755     670.044E-03        -3.16755
            1157               1     963.308E-03     782.106E-03    -963.308E-03     782.106E-03
            1158               1     365.479E-03         1.79644     365.479E-03        -1.79644
            1159               1     496.583E-03     835.286E-03    -496.583E-03    -835.286E-03
            1160               1     452.898E-03         1.49349    -452.898E-03         1.49349
            1161               1         1.05066         1.16401        -1.05066        -1.16401
            1162               1     911.106E-03         1.20682    -911.106E-03         1.20682
            1163               1         2.04390     383.891E-03         2.04390    -383.891E-03
            1164               1     572.008E-03     886.261E-03    -572.008E-03    -886.261E-03
            1165               1     953.362E-03         1.22231    -953.362E-03         1.22231
            1166               1     242.746E-03         1.01308     242.746E-03         1.01308
            1167               1         1.16901     73.4140E-03         1.16901     73.4140E-03
            1168               1     27.8740E-03         1.22962    -27.8740E-03         1.22962
            1169               1         1.52234     422.474E-03        -1.52234     422.474E-03
            1170               1     715.269E-03     883.450E-03    -715.269E-03    -883.450E-03
            1171               1     19.6960E-03     15.0844E-03    -19.6960E-03    -15.0844E-03
            1172               1     119.459E-03     124.238E-03    -119.459E-03    -124.238E-03
            1173               1     166.095E-03         1.51928     166.095E-03        -1.51928
            1174               1     843.597E-03         3.40410    -843.597E-03         3.40410
            1175               1     884.257E-03         1.44010     884.257E-03        -1.44010
            1176               1         3.83389     502.587E-03         3.83389    -502.587E-03
            1177               1     199.494E-03     141.929E-03    -199.494E-03     141.929E-03
            1178               1     980.412E-03         1.10299    -980.412E-03         1.10299
            1179               1         1.31190     417.273E-03        -1.31190     417.273E-03
            1180               1         3.19320     434.929E-03         3.19320    -434.929E-03
            1181               1     271.211E-03     762.794E-03    -271.211E-03    -762.794E-03
            1182               1     907.464E-03         1.21764     907.464E-03        -1.21764
            1183               1     861.386E-03         1.32003     861.386E-03        -1.32003
            1184               1         1.53314     10.5218E-03        -1.53314    -10.5218E-03
            1185               1     935.637E-03     264.525E-03     935.637E-03     264.525E-03
            1186               1         1.23800     588.419E-03         1.23800    -588.419E-03
            1187               1         1.26948     341.486E-03         1.26948    -341.486E-03
            1188               1         1.39423     786.075E-03        -1.39423     786.075E-03
            1189               1         3.68427     410.485E-03        -3.68427     410.485E-03
            1190               1         1.49285     995.701E-03        -1.49285     995.701E-03
            1191               1         1.51425     75.2668E-03        -1.51425     75.2668E-03
            1192               1         1.23342         1.07854        -1.23342        -1.07854
            1193               1         1.11238         1.00057         1.11238        -1.00057
            1194               1     210.050E-03         1.23378    -210.050E-03         1.23378
            1195               1         1.44420     317.717E-03        -1.44420     317.717E-03
            1196               1         2.21317         1.18025         2.21317        -1.18025
            1197               1     140.847E-03         1.32556     140.847E-03        -1.32556
            1198               1         1.45977         2.94899         1.45977        -2.94899
            1199               1         2.46430     679.373E-03        -2.46430    -679.373E-03
            1200               1         1.46636         1.36925        -1.46636        -1.36925
            1201               1         3.49745     467.151E-03        -3.49745     467.151E-03
            1202               1     490.158E-03         1.42362     490.158E-03        -1.42362
            1203               1     600.467E-03     728.647E-03     600.467E-03    -728.647E-03
            1204               1         3.68304     476.628E-03         3.68304    -476.628E-03
            1205               1         1.16802     915.900E-03         1.16802    -915.900E-03
            1206               1     221.404E-03     322.609E-03    -221.404E-03    -322.609E-03
            1207               1         1.21091     199.619E-03         1.21091    -199.619E-03
            1208               1     333.817E-03     49.1746E-03     333.817E-03     49.1746E-03
            1209               1     746.858E-03         3.39588     746.858E-03        -3.39588
            1210               1     460.884E-03     16.6095E-03    -460.884E-03    -16.6095E-03
            1211               1     750.858E-03         3.39977     750.858E-03        -3.39977
            1212               1     977.787E-03         2.71869     977.787E-03        -2.71869
            1213               1     197.744E-03     366.076E-03    -197.744E-03    -366.076E-03
            1214               1         2.93278     826.972E-03        -2.93278     826.972E-03
            1215               1     14.1618E-03         1.51965    -14.1618E-03        -1.51965
            1216               1         1.15017         2.91406        -1.15017         2.91406
            1217               1     906.580E-03         1.19745     906.580E-03        -1.19745
            1218               1     753.639E-03         3.41447     753.639E-03        -3.41447
            1219               1         3.50001     912.523E-03         3.50001    -912.523E-03
            1220               1         1.02687     937.089E-03        -1.02687     937.089E-03
            1221               1         1.24659     479.816E-03         1.24659    -479.816E-03
            1222               1     573.169E-03     761.747E-03    -573.169E-03    -761.747E-03
            1223               1         1.45401     573.742E-03        -1.45401     573.742E-03
            1224               1         3.12218         1.23705        -3.12218         1.23705
            1225               1         1.37107     734.061E-03        -1.37107     734.061E-03
            1226               1         1.95373     763.534E-03        -1.95373    -763.534E-03
            1227               1         1.16077     904.939E-03         1.16077    -904.939E-03
            1228               1     953.130E-03         1.27300    -953.130E-03         1.27300
            1229               1     89.5788E-03     691.471E-03    -89.5788E-03     691.471E-03
            1230               1     585.965E-03     319.078E-03    -585.965E-03    -319.078E-03
            1231               1         1.27512     760.673E-03         1.27512    -760.673E-03
            1232               1     755.787E-03         3.41899     755.787E-03        -3.41899
            1233               1         2.79362         1.10503         2.79362        -1.10503
            1234               1         1.07839         1.11367         1.07839        -1.11367
            1235               1         1.11532         1.78988         1.11532        -1.78988
            1236               1         3.85836     533.698E-03         3.85836    -533.698E-03
            1237               1         1.49429     394.300E-03        -1.49429     394.300E-03
            1238               1         1.80914     554.637E-03        -1.80914     554.637E-03
            1239               1         1.34982     963.293E-03        -1.34982     963.293E-03
            1240               1         1.09761         1.07322         1.09761        -1.07322
            1241               1     560.266E-03     632.582E-03     560.266E-03     632.582E-03
            1242               1     565.105E-03     236.439E-03    -565.105E-03    -236.439E-03
            1243               1         1.05709     844.615E-03         1.05709    -844.615E-03
            1244               1         3.66982     450.875E-03         3.66982    -450.875E-03
            1245               1     700.898E-03         3.20646     700.898E-03        -3.20646
            1246               1     738.297E-03         1.13877     738.297E-03        -1.13877
            1247               1         1.23022     846.021E-03        -1.23022     846.021E-03
            1248               1     826.199E-03     337.345E-03     826.199E-03     337.345E-03
            1249               1         1.90781     130.933E-03        -1.90781     130.933E-03
            1250               1     908.583E-03     983.216E-03    -908.583E-03     983.216E-03
            1251               1         2.34189     634.641E-03         2.34189    -634.641E-03
            1252               1     259.251E-03     950.159E-03     259.251E-03     950.159E-03
            1253               1     883.658E-03         1.25142     883.658E-03        -1.25142
            1254               1     665.588E-03         3.17261     665.588E-03        -3.17261
            1255               1         3.84154     516.251E-03         3.84154    -516.251E-03
            1256               1     18.4140E-03     671.681E-03     18.4140E-03     671.681E-03
            1257               1         3.85208     525.756E-03         3.85208    -525.756E-03
            1258               1         1.07609     546.894E-03        -1.07609     546.894E-03
            1259               1         1.58499     490.770E-03        -1.58499    -490.770E-03
            1260               1         3.82938     496.071E-03         3.82938    -496.071E-03
            1261               1         1.25759     858.987E-03        -1.25759     858.987E-03
            1262               1         1.16096     883.821E-03        -1.16096     883.821E-03
            1263               1         3.45712     567.258E-03        -3.45712     567.258E-03
            1264               1         1.10596     303.124E-03        -1.10596     303.124E-03
            1265               1     913.950E-03         1.28696    -913.950E-03         1.28696
            1266               1     577.065E-03         1.28356    -577.065E-03         1.28356
            1267               1         1.12068     893.104E-03         1.12068    -893.104E-03
            1268               1     260.649E-03     918.621E-03    -260.649E-03    -918.621E-03
            1269               1     930.252E-03         1.20344     930.252E-03        -1.20344
            1270               1         1.56450     340.742E-03        -1.56450    -340.742E-03
            1271               1     428.452E-03     850.418E-03     428.452E-03     850.418E-03
            1272               1         2.97377         1.16012        -2.97377         1.16012
            1273               1         1.18753     813.169E-03         1.18753    -813.169E-03
            1274               1         1.03089         1.00775        -1.03089         1.00775
            1275               1         2.07976         1.39153        -2.07976         1.39153
            1276               1         1.47878         3.18031         1.47878        -3.18031
            1277               1         1.28993     902.802E-03        -1.28993     902.802E-03
            1278               1     803.410E-03         3.26605    -803.410E-03         3.26605
            1279               1     198.706E-03         1.20075    -198.706E-03         1.20075
            1280               1     493.975E-03     985.897E-03    -493.975E-03    -985.897E-03
            1281               1         3.46723     895.624E-03         3.46723    -895.624E-03
            1282               1         1.33748     881.052E-03        -1.33748     881.052E-03
            1283               1         1.08083     172.313E-03         1.08083     172.313E-03
            1284               1         1.21097     76.1249E-03         1.21097    -76.1249E-03
            1285               1         1.41905         2.47838         1.41905        -2.47838
            1286               1         1.34041     665.229E-03        -1.34041     665.229E-03
            1287               1         1.26038     588.179E-03         1.26038    -588.179E-03
            1288               1     496.561E-03     518.808E-03     496.561E-03     518.808E-03
            1289               1     773.903E-03         1.30917     773.903E-03        -1.30917
            1290               1         1.13596         1.07276         1.13596        -1.07276
            1291               1         1.18166         1.04476         1.18166        -1.04476
            1292               1     863.381E-03         1.56271     863.381E-03        -1.56271
            1293               1         1.05475         3.14009         1.05475        -3.14009
            1294               1         3.17261     665.588E-03        -3.17261     665.588E-03
            1295               1     749.180E-03         3.40566     749.180E-03        -3.40566
            1296               1         1.76850         2.56876         1.76850        -2.56876
            1297               1         2.23422     788.335E-03        -2.23422    -788.335E-03
            1298               1         1.61351     986.968E-03        -1.61351    -986.968E-03
            1299               1     870.382E-03         3.41548    -870.382E-03         3.41548
            1300               1     995.207E-03         1.57488     995.207E-03        -1.57488
            1301               1         1.01741     526.608E-03        -1.01741     526.608E-03
            1302               1     801.889E-03     727.608E-03     801.889E-03    -727.608E-03
            1303               1     697.343E-03     716.047E-03     697.343E-03    -716.047E-03
            1304               1     960.932E-03     718.992E-03    -960.932E-03     718.992E-03
            1305               1     87.6430E-03         1.16167    -87.6430E-03         1.16167
            1306               1         1.00994     77.0374E-03         1.00994    -77.0374E-03
            1307               1     515.593E-03     667.242E-03     515.593E-03    -667.242E-03
            1308               1         1.27913     921.860E-03        -1.27913     921.860E-03
            1309               1         3.64105     355.887E-03        -3.64105     355.887E-03
            1310               1         2.92037         1.30739        -2.92037         1.30739
            1311               1         1.62581     208.195E-03        -1.62581    -208.195E-03
            1312               1     57.0653E-03     34.0410E-03     57.0653E-03     34.0410E-03
            1313               1     568.063E-03     833.753E-03    -568.063E-03     833.753E-03
            1314               1     210.096E-03         1.22371    -210.096E-03         1.22371
            1315               1         1.03099         1.86212        -1.03099        -1.86212
            1316               1     756.526E-03     207.366E-03     756.526E-03     207.366E-03
            1317               1         1.33998     812.825E-03        -1.33998     812.825E-03
            1318               1     807.666E-03         3.27090    -807.666E-03         3.27090
            1319               1     992.402E-03         1.79728    -992.402E-03        -1.79728
            1320               1         1.37732     702.322E-03        -1.37732     702.322E-03
            1321               1     793.975E-03         3.22920    -793.975E-03         3.22920
            1322               1         1.19032     905.182E-03        -1.19032    -905.182E-03
            1323               1         1.69529     707.481E-03        -1.69529    -707.481E-03
            1324               1     707.481E-03         1.69529    -707.481E-03        -1.69529
            1325               1         1.15610     907.650E-03         1.15610    -907.650E-03
            1326               1     51.7803E-03     669.777E-03     51.7803E-03     669.777E-03
            1327               1     542.722E-03     329.350E-03     542.722E-03     329.350E-03
            1328               1         3.82682     498.432E-03         3.82682    -498.432E-03
            1329               1     586.052E-03     565.906E-03     586.052E-03     565.906E-03
            1330               1     895.673E-03         1.14869     895.673E-03        -1.14869
            1331               1         1.42788     925.895E-03        -1.42788    -925.895E-03
            1332               1         3.83044     499.426E-03         3.83044    -499.426E-03
            1333               1         1.23104     966.912E-03         1.23104    -966.912E-03
            1334               1     821.804E-03     797.307E-03     821.804E-03    -797.307E-03
            1335               1     854.718E-03         1.50901     854.718E-03        -1.50901
            1336               1     893.488E-03     443.443E-03    -893.488E-03    -443.443E-03
            1337               1         1.22737     250.639E-03         1.22737    -250.639E-03
            1338               1         2.87640     422.068E-03         2.87640    -422.068E-03
            1339               1         1.21728     137.045E-03         1.21728    -137.045E-03
            1340               1     881.634E-03         1.07356    -881.634E-03         1.07356
            1341               1         1.17472         1.03712        -1.17472        -1.03712
            1342               1         1.19740     23.6800E-03         1.19740    -23.6800E-03
            1343               1         2.48715     409.328E-03         2.48715    -409.328E-03
            1344               1     511.311E-03     721.839E-03    -511.311E-03    -721.839E-03
            1345               1         1.60683     16.8091E-03        -1.60683    -16.8091E-03
            1346               1     324.349E-03     84.2039E-03     324.349E-03    -84.2039E-03
            1347               1     382.832E-03         1.20198    -382.832E-03         1.20198
            1348               1     653.743E-03         1.62817    -653.743E-03        -1.62817
            1349               1     3.79965E-03     785.993E-03     3.79965E-03     785.993E-03
            1350               1         1.58821     210.290E-06        -1.58821    -210.290E-06
            1351               1     84.2293E-03         1.15151     84.2293E-03         1.15151
            1352               1     568.849E-03         1.93186    -568.849E-03         1.93186
            1353               1         1.43665         1.07485        -1.43665        -1.07485
            1354               1     183.909E-03     874.070E-03    -183.909E-03     874.070E-03
            1355               1         1.42476     725.547E-03        -1.42476    -725.547E-03
            1356               1     80.5728E-03     533.694E-03    -80.5728E-03    -533.694E-03
            1357               1     724.558E-03     511.807E-03     724.558E-03     511.807E-03
            1358               1     812.502E-03     925.474E-03    -812.502E-03     925.474E-03
            1359               1     814.019E-03     589.858E-03    -814.019E-03    -589.858E-03
            1360               1     761.927E-03     653.625E-03    -761.927E-03     653.625E-03
            1361               1         1.18758     561.294E-03         1.18758    -561.294E-03
            1362               1         1.08960     764.839E-03        -1.08960     764.839E-03
            1363               1     970.065E-03         1.50610    -970.065E-03        -1.50610
            1364               1     598.671E-03         1.35210    -598.671E-03        -1.35210
            1365               1     99.4825E-03     556.789E-03     99.4825E-03     556.789E-03
            1366               1         2.35422         1.34664        -2.35422         1.34664
            1367               1     928.509E-03         1.03342     928.509E-03        -1.03342
            1368               1     872.372E-03     544.343E-03    -872.372E-03     544.343E-03
            1369               1         3.04872         1.32073         3.04872        -1.32073
            1370               1         1.34456     769.374E-03        -1.34456    -769.374E-03
            1371               1     507.911E-03     578.926E-03    -507.911E-03    -578.926E-03
            1372               1         3.46455     886.261E-03         3.46455    -886.261E-03
            1373               1         1.10643         2.91599        -1.10643         2.91599
            1374               1     761.071E-03     978.435E-03     761.071E-03    -978.435E-03
            1375               1     323.105E-03     876.893E-03     323.105E-03    -876.893E-03
            1376               1         1.95397     264.107E-03        -1.95397     264.107E-03
            1377               1         1.06571     807.872E-03         1.06571    -807.872E-03
            1378               1         1.17773     948.852E-03        -1.17773     948.852E-03
            1379               1     793.205E-03         1.00296     793.205E-03        -1.00296
            1380               1         1.23018     880.517E-03        -1.23018     880.517E-03
            1381               1         2.27498     335.105E-03        -2.27498    -335.105E-03
            1382               1         3.18063     682.395E-03        -3.18063     682.395E-03
            1383               1     998.055E-03     850.075E-03     998.055E-03    -850.075E-03
            1384               1     990.619E-03         1.36666     990.619E-03        -1.36666
            1385               1         1.28652     393.222E-03        -1.28652    -393.222E-03
            1386               1     126.282E-03     136.393E-03    -126.282E-03    -136.393E-03
            1387               1     709.563E-03     756.018E-03     709.563E-03    -756.018E-03
            1388               1         2.05281     652.229E-03        -2.05281    -652.229E-03
            1389               1         1.88839     135.476E-03        -1.88839     135.476E-03
            1390               1         1.59660     344.107E-03        -1.59660    -344.107E-03
            1391               1     200.877E-03     758.672E-03    -200.877E-03     758.672E-03
            1392               1         3.40410     843.597E-03         3.40410    -843.597E-03
            1393               1         1.32969         2.75764         1.32969        -2.75764
            1394               1     490.202E-03         1.45930     490.202E-03        -1.45930
            1395               1     654.628E-03     100.451E-03     654.628E-03     100.451E-03
            1396               1     316.365E-03     352.115E-03     316.365E-03     352.115E-03
            1397               1     967.760E-03         1.20602    -967.760E-03         1.20602
            1398               1     69.6834E-03     6.58752E-03    -69.6834E-03     6.58752E-03
            1399               1         1.55942     317.329E-03        -1.55942     317.329E-03
            1400               1         1.65981     160.264E-03        -1.65981     160.264E-03
            1401               1         1.26183     559.193E-03         1.26183    -559.193E-03
            1402               1         2.69654     693.414E-03         2.69654    -693.414E-03
            1403               1         2.57219         2.02990         2.57219        -2.02990
            1404               1     144.876E-03     258.720E-03    -144.876E-03     258.720E-03
            1405               1     407.508E-03     885.172E-03     407.508E-03     885.172E-03
            1406               1         1.64962     924.546E-03        -1.64962     924.546E-03
            1407               1     957.750E-03         1.28722     957.750E-03        -1.28722
            1408               1         1.31027     873.347E-03        -1.31027     873.347E-03
            1409               1         1.01984         1.27842        -1.01984         1.27842
            1410               1     179.618E-03     684.737E-03     179.618E-03     684.737E-03
            1411               1     785.993E-03     3.79965E-03     785.993E-03     3.79965E-03
            1412               1         2.36973     460.452E-03        -2.36973     460.452E-03
            1413               1         3.29189     815.762E-03         3.29189    -815.762E-03
            1414               1     364.330E-03     459.222E-03     364.330E-03     459.222E-03
            1415               1         3.30379         1.31065        -3.30379         1.31065
            1416               1         2.52135     653.890E-03         2.52135    -653.890E-03
            1417               1     850.418E-03     428.452E-03     850.418E-03     428.452E-03
            1418               1         1.03869     71.7994E-03         1.03869     71.7994E-03
            1419               1         1.09511     184.808E-03         1.09511     184.808E-03
            1420               1     970.045E-03         1.11058    -970.045E-03         1.11058
            1421               1         1.65913         2.70180        -1.65913         2.70180
            1422               1         1.04577     935.799E-03         1.04577    -935.799E-03
            1423               1         1.16401         1.05066        -1.16401        -1.05066
            1424               1     645.692E-03     651.371E-03    -645.692E-03     651.371E-03
            1425               1         1.58874     220.009E-03        -1.58874     220.009E-03
            1426               1     304.387E-03     470.881E-03    -304.387E-03    -470.881E-03
            1427               1         1.63790     642.778E-03        -1.63790    -642.778E-03
            1428               1     249.888E-03         2.05165     249.888E-03        -2.05165
            1429               1     708.831E-03         1.61378    -708.831E-03         1.61378
            1430               1     153.415E-03         1.14251     153.415E-03         1.14251
            1431               1         3.02802         1.30883         3.02802        -1.30883
            1432               1     831.325E-03     586.192E-03    -831.325E-03    -586.192E-03
            1433               1     974.557E-03         2.60783    -974.557E-03         2.60783
            1434               1     819.841E-03         1.79935    -819.841E-03         1.79935
            1435               1         1.57860     107.023E-03        -1.57860    -107.023E-03
            1436               1         2.15505     562.667E-03        -2.15505    -562.667E-03
            1437               1     510.161E-03     958.135E-03    -510.161E-03    -958.135E-03
            1438               1         1.45518     530.998E-03        -1.45518     530.998E-03
            1439               1     552.668E-03     683.065E-03    -552.668E-03     683.065E-03
            1440               1     870.991E-03         1.02755     870.991E-03        -1.02755
            1441               1         1.57080         2.47777        -1.57080         2.47777
            1442               1         1.11425         2.50919         1.11425        -2.50919
            1443               1         1.14217     864.730E-03        -1.14217     864.730E-03
            1444               1         2.73424         1.28352        -2.73424         1.28352
            1445               1         1.26984         3.13599         1.26984        -3.13599
            1446               1         1.57635     650.763E-03        -1.57635    -650.763E-03
            1447               1     847.859E-03         1.20020     847.859E-03        -1.20020
            1448               1         1.02765     793.435E-03         1.02765    -793.435E-03
            1449               1         2.18924     895.526E-03         2.18924    -895.526E-03
            1450               1         1.18491     690.170E-03         1.18491    -690.170E-03
            1451               1     276.927E-03     706.020E-03     276.927E-03     706.020E-03
            1452               1     874.907E-03         1.06473     874.907E-03        -1.06473
            1453               1     450.581E-03         1.40509     450.581E-03        -1.40509
            1454               1     390.155E-03     619.417E-03    -390.155E-03    -619.417E-03
            1455               1         1.19171         3.04145         1.19171        -3.04145
            1456               1     718.992E-03     960.932E-03     718.992E-03    -960.932E-03
            1457               1     397.925E-03     895.838E-03    -397.925E-03     895.838E-03
            1458               1     561.333E-03         1.83418     561.333E-03        -1.83418
            1459               1         2.30760     355.502E-03        -2.30760    -355.502E-03
            1460               1     138.822E-03     891.190E-03    -138.822E-03     891.190E-03
            1461               1         3.27287     787.221E-03        -3.27287     787.221E-03
            1462               1         3.20646     700.898E-03        -3.20646     700.898E-03
            1463               1     234.139E-03         1.60097     234.139E-03        -1.60097
            1464               1         1.04587         1.70844        -1.04587        -1.70844
            1465               1     142.657E-03     725.221E-03    -142.657E-03     725.221E-03
            1466               1     191.724E-03     275.779E-03    -191.724E-03    -275.779E-03
            1467               1         1.21852     725.574E-03         1.21852    -725.574E-03
            1468               1     396.153E-03         1.83984    -396.153E-03        -1.83984
            1469               1     317.944E-03     451.702E-03    -317.944E-03    -451.702E-03
            1470               1     895.570E-03         1.23069     895.570E-03        -1.23069
            1471               1     969.956E-03     840.521E-03    -969.956E-03    -840.521E-03
            1472               1     128.037E-03     657.647E-03     128.037E-03     657.647E-03
            1473               1         1.22607     335.656E-03         1.22607    -335.656E-03
            1474               1     824.430E-03         1.31104     824.430E-03        -1.31104
            1475               1         1.30739         2.92037         1.30739        -2.92037
            1476               1     858.606E-03     994.273E-03     858.606E-03    -994.273E-03
            1477               1         1.21436     376.915E-03         1.21436    -376.915E-03
            1478               1         1.25400     704.947E-03         1.25400    -704.947E-03
            1479               1         1.20517         3.03423        -1.20517         3.03423
            1480               1     642.228E-03     652.477E-03     642.228E-03    -652.477E-03
            1481               1         1.11497         2.71327         1.11497        -2.71327
            1482               1         1.54354     318.922E-03        -1.54354     318.922E-03
            1483               1         1.20299     321.415E-03         1.20299    -321.415E-03
            1484               1         3.51779     921.961E-03         3.51779    -921.961E-03
            1485               1     258.681E-03     12.9593E-03    -258.681E-03    -12.9593E-03
            1486               1         1.11467     891.141E-03         1.11467    -891.141E-03
            1487               1     41.1222E-03         1.71178    -41.1222E-03        -1.71178
            1488               1     993.502E-03         1.25019    -993.502E-03         1.25019
            1489               1     503.678E-03     742.756E-03    -503.678E-03    -742.756E-03
            1490               1         2.94899         1.45977        -2.94899         1.45977
            1491               1         2.39112     3.79374E-03        -2.39112    -3.79374E-03
            1492               1     633.108E-03         1.40792    -633.108E-03         1.40792
            1493               1         1.00468     875.251E-03         1.00468    -875.251E-03
            1494               1         1.44274     640.429E-03        -1.44274     640.429E-03
            1495               1         1.12737         2.96750        -1.12737         2.96750
            1496               1     657.758E-03         1.63140     657.758E-03        -1.63140
            1497               1         1.79981         2.53731         1.79981        -2.53731
            1498               1         1.00949     856.340E-03         1.00949    -856.340E-03
            1499               1     986.542E-03         1.02466    -986.542E-03         1.02466
            1500               1         1.04587         1.11421         1.04587        -1.11421
            1501               1     728.758E-03     781.810E-03     728.758E-03    -781.810E-03
            1502               1         2.49105     945.427E-03         2.49105    -945.427E-03
            1503               1         1.13550     966.886E-03        -1.13550     966.886E-03
            1504               1         1.07356     881.634E-03         1.07356    -881.634E-03
            1505               1         1.14981         2.87466        -1.14981         2.87466
            1506               1     833.910E-03         1.18805     833.910E-03        -1.18805
            1507               1         1.14251     153.415E-03         1.14251     153.415E-03
            1508               1     832.293E-03         2.01955    -832.293E-03         2.01955
            1509               1     933.667E-03         1.68657     933.667E-03        -1.68657
            1510               1     174.600E-03     288.836E-03     174.600E-03     288.836E-03
            1511               1         1.02755     870.991E-03        -1.02755     870.991E-03
            1512               1         1.22901         1.48483        -1.22901         1.48483
            1513               1         1.17261     796.595E-03         1.17261    -796.595E-03
            1514               1         3.45938     879.793E-03         3.45938    -879.793E-03
            1515               1         3.16555     807.548E-03        -3.16555     807.548E-03
            1516               1     961.104E-03         1.07022     961.104E-03        -1.07022
            1517               1     830.485E-03         1.07053     830.485E-03        -1.07053
            1518               1     788.944E-03     483.736E-03    -788.944E-03     483.736E-03
            1519               1         1.01468         1.03764         1.01468        -1.03764
            1520               1         1.18303     154.300E-03         1.18303    -154.300E-03
            1521               1     493.371E-03         1.12430     493.371E-03        -1.12430
            1522               1         3.16755     670.044E-03        -3.16755     670.044E-03
            1523               1         1.09185     829.730E-03        -1.09185     829.730E-03
            1524               1     622.992E-03     291.619E-03     622.992E-03     291.619E-03
            1525               1     982.982E-03     791.261E-03    -982.982E-03     791.261E-03
            1526               1     931.609E-03     388.626E-03     931.609E-03     388.626E-03
            1527               1         1.69212     446.458E-03        -1.69212    -446.458E-03
            1528               1     359.801E-03         1.66868     359.801E-03        -1.66868
            1529               1     895.526E-03         2.18924    -895.526E-03         2.18924
            1530               1         1.61874     430.761E-03        -1.61874    -430.761E-03
            1531               1     755.744E-03         1.27955     755.744E-03        -1.27955
            1532               1         3.10752         1.35977         3.10752        -1.35977
            1533               1         1.75976         2.51198         1.75976        -2.51198
            1534               1     669.139E-03         1.83284    -669.139E-03        -1.83284
            1535               1     748.751E-03         1.91512     748.751E-03        -1.91512
            1536               1     459.252E-03     381.681E-03     459.252E-03     381.681E-03
            1537               1     605.265E-03         1.72057    -605.265E-03        -1.72057
            1538               1     436.154E-03     861.312E-03     436.154E-03     861.312E-03
            1539               1         1.03661         1.28546        -1.03661         1.28546
            1540               1         1.17982     575.167E-03         1.17982    -575.167E-03
            1541               1         1.46336     375.016E-03        -1.46336     375.016E-03
            1542               1         1.19984     446.515E-03         1.19984    -446.515E-03
            1543               1     788.493E-03     788.862E-03     788.493E-03    -788.862E-03
            1544               1     258.668E-03         1.16634    -258.668E-03         1.16634
            1545               1     866.680E-03         1.02194     866.680E-03        -1.02194
            1546               1     446.458E-03         1.69212    -446.458E-03        -1.69212
            1547               1     67.5111E-03         1.04247     67.5111E-03         1.04247
            1548               1         1.49807     514.097E-03        -1.49807    -514.097E-03
            1549               1         3.48015     887.293E-03         3.48015    -887.293E-03
            1550               1         1.08209     936.201E-03         1.08209    -936.201E-03
            1551               1         1.19836         3.10138         1.19836        -3.10138
            1552               1         1.28722     957.750E-03        -1.28722     957.750E-03
            1553               1         1.81532         2.61442         1.81532        -2.61442
            1554               1     431.298E-03     843.370E-03    -431.298E-03     843.370E-03
            1555               1         1.19665     877.069E-03        -1.19665    -877.069E-03
            1556               1     988.376E-03     856.194E-03     988.376E-03    -856.194E-03
            1557               1         1.91883     532.494E-03        -1.91883    -532.494E-03
            1558               1         1.19600         2.94240        -1.19600         2.94240
            1559               1         1.37148     750.217E-03        -1.37148     750.217E-03
            1560               1         1.14247         2.98809        -1.14247         2.98809
            1561               1     738.872E-03     698.638E-03     738.872E-03    -698.638E-03
            1562               1         1.22667     7.59510E-03        -1.22667    -7.59510E-03
            1563               1     661.126E-03     624.474E-03     661.126E-03    -624.474E-03
            1564               1         1.25773     356.985E-03         1.25773    -356.985E-03
            1565               1         1.11421         1.04587        -1.11421         1.04587
            1566               1         1.27352     574.981E-03        -1.27352    -574.981E-03
            1567               1         1.86758     735.421E-03        -1.86758    -735.421E-03
            1568               1     191.155E-03         1.58446    -191.155E-03        -1.58446
            1569               1         1.72105     526.845E-03         1.72105    -526.845E-03
            1570               1         1.21505     607.163E-03         1.21505    -607.163E-03
            1571               1         1.54632     568.720E-03        -1.54632    -568.720E-03
            1572               1     692.903E-03     305.667E-03     692.903E-03     305.667E-03
            1573               1     840.060E-03         1.77578    -840.060E-03        -1.77578
            1574               1     968.275E-03         2.09793     968.275E-03        -2.09793
            1575               1         1.65111     707.245E-03        -1.65111     707.245E-03
            1576               1         3.26700         1.27680        -3.26700         1.27680
            1577               1         1.38539     315.425E-03        -1.38539     315.425E-03
            1578               1         1.17049     532.492E-03        -1.17049    -532.492E-03
            1579               1         2.43201         1.85714         2.43201        -1.85714
            1580               1     995.840E-03     838.067E-03    -995.840E-03     838.067E-03
            1581               1         1.17389         3.01436         1.17389        -3.01436
            1582               1         3.50192     889.425E-03         3.50192    -889.425E-03
            1583               1         1.14235     988.551E-03         1.14235    -988.551E-03
            1584               1         3.45938     877.773E-03         3.45938    -877.773E-03
            1585               1     984.207E-03     850.868E-03     984.207E-03    -850.868E-03
            1586               1     937.023E-03     770.272E-03    -937.023E-03    -770.272E-03
            1587               1     448.255E-03     411.205E-03     448.255E-03     411.205E-03
            1588               1         1.80262     50.0596E-03        -1.80262     50.0596E-03
            1589               1         1.00501     465.398E-03        -1.00501    -465.398E-03
            1590               1         1.73295     624.822E-03        -1.73295    -624.822E-03
            1591               1         1.16506     105.375E-03         1.16506    -105.375E-03
            1592               1     642.778E-03         1.63790    -642.778E-03        -1.63790
            1593               1         3.03615         1.31446         3.03615        -1.31446
            1594               1         1.52672         2.29950        -1.52672         2.29950
            1595               1     870.911E-03     991.529E-03     870.911E-03    -991.529E-03
            1596               1     640.549E-03     546.546E-03    -640.549E-03    -546.546E-03
            1597               1         1.00792         1.13811         1.00792        -1.13811
            1598               1     989.450E-03     294.780E-03     989.450E-03     294.780E-03
            1599               1         1.56221     955.082E-03        -1.56221     955.082E-03
            1600               1     491.166E-03     140.953E-03     491.166E-03     140.953E-03
            1601               1     423.700E-03     922.828E-03    -423.700E-03     922.828E-03
            1602               1     568.771E-03         1.76572    -568.771E-03        -1.76572
            1603               1         1.12604     412.785E-03         1.12604    -412.785E-03
            1604               1     539.411E-03     697.603E-03    -539.411E-03    -697.603E-03
            1605               1         1.38779         1.47315         1.38779        -1.47315
            1606               1         1.79935     819.841E-03         1.79935    -819.841E-03
            1607               1     418.063E-03     60.9051E-03     418.063E-03     60.9051E-03
            1608               1     625.250E-03         1.29119    -625.250E-03        -1.29119
            1609               1     543.408E-03         1.88082    -543.408E-03        -1.88082
            1610               1         1.36559     448.634E-03        -1.36559    -448.634E-03
            1611               1     798.876E-03     756.022E-03    -798.876E-03     756.022E-03
            1612               1         1.76272         2.50991         1.76272        -2.50991
            1613               1     751.383E-03     843.100E-03     751.383E-03    -843.100E-03
            1614               1         1.50732     563.159E-03        -1.50732    -563.159E-03
            1615               1     916.430E-03         1.10011    -916.430E-03        -1.10011
            1616               1         2.97030         1.19289        -2.97030         1.19289
            1617               1     721.790E-03         1.44405    -721.790E-03         1.44405
            1618               1         3.15526         1.35332         3.15526        -1.35332
            1619               1     884.886E-03         1.18021    -884.886E-03         1.18021
            1620               1         1.30289     861.787E-03        -1.30289    -861.787E-03
            1621               1     450.866E-03         1.42742    -450.866E-03        -1.42742
            1622               1     31.1428E-03         1.72096     31.1428E-03        -1.72096
            1623               1     559.354E-03     734.033E-03     559.354E-03    -734.033E-03
            1624               1     717.857E-03     719.707E-03    -717.857E-03    -719.707E-03
            1625               1     858.819E-03     723.730E-03    -858.819E-03     723.730E-03
            1626               1     857.597E-03         1.43820    -857.597E-03        -1.43820
            1627               1         1.11852     418.842E-03        -1.11852    -418.842E-03
            1628               1     429.144E-03     266.898E-03    -429.144E-03    -266.898E-03
            1629               1     202.767E-03         1.59789     202.767E-03        -1.59789
            1630               1     998.509E-03     970.026E-03    -998.509E-03    -970.026E-03
            1631               1     244.899E-03     475.029E-03    -244.899E-03    -475.029E-03
            1632               1     536.841E-03     793.619E-03    -536.841E-03     793.619E-03
            1633               1     195.055E-03     207.064E-03     195.055E-03    -207.064E-03
            1634               1         1.15693         1.22244        -1.15693         1.22244
            1635               1         2.60783     974.557E-03         2.60783    -974.557E-03
            1636               1         2.35071     921.856E-03         2.35071    -921.856E-03
            1637               1         3.05509         1.32813         3.05509        -1.32813
            1638               1         1.18025         2.21317        -1.18025         2.21317
            1639               1     411.689E-03     474.304E-03     411.689E-03     474.304E-03
            1640               1     910.602E-03     998.459E-03    -910.602E-03     998.459E-03
            1641               1         3.11438         1.36274         3.11438        -1.36274
            1642               1         2.51558         1.89960         2.51558        -1.89960
            1643               1         1.48288     153.740E-03        -1.48288     153.740E-03
            1644               1         1.47445         2.43220        -1.47445         2.43220
            1645               1     440.383E-03     723.754E-03     440.383E-03     723.754E-03
            1646               1     393.717E-03     671.698E-03    -393.717E-03    -671.698E-03
            1647               1         2.23181     180.421E-03        -2.23181     180.421E-03
            1648               1     460.781E-03     803.355E-03     460.781E-03     803.355E-03
            1649               1         1.02008         1.31826        -1.02008        -1.31826
            1650               1     652.435E-03     663.250E-03     652.435E-03    -663.250E-03
            1651               1         1.48723         2.33344        -1.48723         2.33344
            1652               1     47.6270E-03     551.245E-03     47.6270E-03     551.245E-03
            1653               1     741.045E-03     384.131E-03    -741.045E-03     384.131E-03
            1654               1     334.928E-03         1.91759    -334.928E-03        -1.91759
            1655               1         1.20164     297.754E-03         1.20164    -297.754E-03
            1656               1     186.034E-03     28.5543E-03     186.034E-03     28.5543E-03
            1657               1         1.51372     299.056E-03        -1.51372     299.056E-03
            1658               1         1.98084         1.58973        -1.98084         1.58973
            1659               1         1.16612     291.054E-03         1.16612    -291.054E-03
            1660               1     785.905E-03     936.721E-03     785.905E-03    -936.721E-03
            1661               1     710.939E-03     745.460E-03     710.939E-03    -745.460E-03
            1662               1         1.19240     22.1150E-03         1.19240    -22.1150E-03
            1663               1     184.808E-03         1.09511     184.808E-03         1.09511
            1664               1     638.512E-03     661.842E-03     638.512E-03    -661.842E-03
            1665               1     922.477E-03     827.539E-03     922.477E-03    -827.539E-03
            1666               1     804.030E-03         1.01988     804.030E-03        -1.01988
            1667               1     734.033E-03     559.354E-03    -734.033E-03     559.354E-03
            1668               1     332.373E-03     480.655E-03     332.373E-03     480.655E-03
            1669               1     539.561E-03     310.892E-03    -539.561E-03    -310.892E-03
            1670               1         2.71327         1.11497        -2.71327         1.11497
            1671               1     196.769E-03     838.071E-03     196.769E-03     838.071E-03
            1672               1     35.6319E-03     31.2663E-03    -35.6319E-03    -31.2663E-03
            1673               1     912.961E-03     324.309E-03     912.961E-03     324.309E-03
            1674               1     985.731E-03     189.279E-03     985.731E-03     189.279E-03
            1675               1         1.88082     543.408E-03        -1.88082    -543.408E-03
            1676               1     515.475E-03     618.424E-03     515.475E-03    -618.424E-03
            1677               1         1.44833         2.15938        -1.44833         2.15938
            1678               1         1.66070     343.193E-03        -1.66070    -343.193E-03
            1679               1         1.11325     84.1430E-03         1.11325    -84.1430E-03
            1680               1     469.430E-03     588.567E-03     469.430E-03     588.567E-03
            1681               1         1.20039     489.760E-03        -1.20039    -489.760E-03
            1682               1     23.9287E-03     462.054E-03     23.9287E-03    -462.054E-03
            1683               1         1.60355     375.070E-03        -1.60355    -375.070E-03
            1684               1         1.37950         2.40771         1.37950        -2.40771
            1685               1         1.53606     581.788E-03        -1.53606    -581.788E-03
            1686               1         2.83381         1.11565         2.83381        -1.11565
            1687               1         2.48557         1.91522         2.48557        -1.91522
            1688               1     952.047E-03         1.44285    -952.047E-03         1.44285
            1689               1     840.959E-03     298.766E-03    -840.959E-03     298.766E-03
            1690               1         2.16882         1.13217         2.16882        -1.13217
            1691               1         1.91734     966.022E-03        -1.91734     966.022E-03
            1692               1         1.71110         2.58747         1.71110        -2.58747
            1693               1     538.943E-03     465.390E-03     538.943E-03    -465.390E-03
            1694               1     398.285E-03     492.039E-03     398.285E-03    -492.039E-03
            1695               1     93.2585E-03         1.11849     93.2585E-03         1.11849
            1696               1     714.082E-03     930.146E-03     714.082E-03    -930.146E-03
            1697               1     867.119E-03     754.052E-03    -867.119E-03     754.052E-03
            1698               1     879.823E-03         1.11377     879.823E-03        -1.11377
            1699               1     339.242E-03     997.967E-03     339.242E-03     997.967E-03
            1700               1         1.62738     270.715E-03        -1.62738    -270.715E-03
            1701               1         1.25113         1.17552         1.25113        -1.17552
            1702               1     272.736E-03     646.953E-03    -272.736E-03    -646.953E-03
            1703               1         2.34309     892.536E-03         2.34309    -892.536E-03
            1704               1         1.16500     198.527E-03         1.16500    -198.527E-03
            1705               1         1.13784         1.79938         1.13784        -1.79938
            1706               1     884.221E-03         1.68814    -884.221E-03        -1.68814
            1707               1     725.092E-03     87.8024E-03     725.092E-03     87.8024E-03
            1708               1         1.06274     427.421E-03         1.06274    -427.421E-03
            1709               1         2.01831         1.42149         2.01831        -1.42149
            1710               1         2.26730         1.19764         2.26730        -1.19764
            1711               1     173.936E-03     27.4391E-03    -173.936E-03     27.4391E-03
            1712               1         2.91406         1.15017         2.91406        -1.15017
            1713               1     875.318E-03     846.296E-03     875.318E-03    -846.296E-03
            1714               1         2.47354         1.87494         2.47354        -1.87494
            1715               1         1.52817     421.650E-03        -1.52817     421.650E-03
            1716               1         1.39709         2.57116        -1.39709         2.57116
            1717               1         1.47976         2.00209         1.47976        -2.00209
            1718               1         1.42742     450.866E-03        -1.42742    -450.866E-03
            1719               1     791.907E-03     828.056E-03     791.907E-03    -828.056E-03
            1720               1     967.954E-03     834.617E-03    -967.954E-03     834.617E-03
            1721               1         1.42456         1.16200        -1.42456         1.16200
            1722               1     436.520E-03         1.77184    -436.520E-03        -1.77184
            1723               1         1.43975     834.143E-03        -1.43975     834.143E-03
            1724               1     944.478E-03     894.949E-03    -944.478E-03     894.949E-03
            1725               1         1.71632         2.49233        -1.71632         2.49233
            1726               1         1.25738     88.3820E-03         1.25738     88.3820E-03
            1727               1     228.174E-03         1.77001    -228.174E-03        -1.77001
            1728               1     834.620E-03         1.27569    -834.620E-03         1.27569
            1729               1         2.99569         1.80800        -2.99569         1.80800
            1730               1         2.13998         1.55690         2.13998        -1.55690
            1731               1         2.18922     863.429E-03         2.18922    -863.429E-03
            1732               1     764.286E-03     846.781E-03     764.286E-03    -846.781E-03
            1733               1         2.03141     470.254E-03        -2.03141    -470.254E-03
            1734               1         1.09005     776.409E-03         1.09005    -776.409E-03
            1735               1     467.698E-03         1.66464    -467.698E-03        -1.66464
            1736               1     90.1987E-03         1.72567    -90.1987E-03        -1.72567
            1737               1         1.04129     980.634E-03         1.04129    -980.634E-03
            1738               1         1.38015         1.47007         1.38015        -1.47007
            1739               1     264.698E-03         1.10032     264.698E-03         1.10032
            1740               1         1.54003         2.37084         1.54003        -2.37084
            1741               1     41.2382E-03         1.69582     41.2382E-03        -1.69582
            1742               1     351.153E-03     611.375E-03    -351.153E-03    -611.375E-03
            1743               1     827.146E-03     747.373E-03    -827.146E-03     747.373E-03
            1744               1         1.50112         2.71553        -1.50112         2.71553
            1745               1     550.727E-03     608.452E-03     550.727E-03    -608.452E-03
            1746               1         1.52493         2.68173        -1.52493         2.68173
            1747               1         1.41219     289.594E-03        -1.41219     289.594E-03
            1748               1     718.861E-03     672.209E-03    -718.861E-03     672.209E-03
            1749               1     289.594E-03         1.41219     289.594E-03        -1.41219
            1750               1     980.525E-03     998.988E-03    -980.525E-03     998.988E-03
            1751               1         1.11875     332.897E-03        -1.11875     332.897E-03
            1752               1         1.74565         1.06394        -1.74565         1.06394
            1753               1     268.435E-03     625.062E-03     268.435E-03     625.062E-03
            1754               1         1.24638     943.002E-03        -1.24638     943.002E-03
            1755               1         2.71869     977.787E-03        -2.71869     977.787E-03
            1756               1     23.1582E-03         1.93950     23.1582E-03        -1.93950
            1757               1     786.422E-03         2.24969     786.422E-03        -2.24969
            1758               1         2.25876         1.14250         2.25876        -1.14250
            1759               1     657.787E-03         1.51350    -657.787E-03        -1.51350
            1760               1         1.13968         2.03321         1.13968        -2.03321
            1761               1     83.9205E-03     877.670E-03     83.9205E-03    -877.670E-03
            1762               1         1.17785     15.7564E-03         1.17785     15.7564E-03
            1763               1         1.20258         1.67200         1.20258        -1.67200
            1764               1         1.53304         1.55089         1.53304        -1.55089
            1765               1     736.915E-03         1.67331    -736.915E-03        -1.67331
            1766               1     448.634E-03         1.36559    -448.634E-03        -1.36559
            1767               1         1.74403         2.49373         1.74403        -2.49373
            1768               1         2.73479         1.79542        -2.73479         1.79542
            1769               1     173.198E-03         1.93893     173.198E-03        -1.93893
            1770               1     249.377E-03         1.76961    -249.377E-03        -1.76961
            1771               1     749.105E-03     899.097E-03     749.105E-03    -899.097E-03
            1772               1         1.91759     334.928E-03        -1.91759    -334.928E-03
            1773               1         1.46365     222.388E-03        -1.46365     222.388E-03
            1774               1         2.56876         1.76850        -2.56876         1.76850
            1775               1     864.858E-03     106.785E-03    -864.858E-03     106.785E-03
            1776               1     984.528E-03     857.063E-03     984.528E-03    -857.063E-03
            1777               1     807.221E-03         1.51151    -807.221E-03        -1.51151
            1778               1         1.15553     193.797E-03         1.15553     193.797E-03
            1779               1     650.567E-03         1.63266     650.567E-03        -1.63266
            1780               1         1.21824     24.3646E-03         1.21824     24.3646E-03
            1781               1         1.25416         2.39464        -1.25416         2.39464
            1782               1         1.13121     675.734E-03        -1.13121     675.734E-03
            1783               1     539.912E-03         1.67008     539.912E-03        -1.67008
            1784               1     445.863E-03     534.625E-03     445.863E-03     534.625E-03
            1785               1     739.414E-03     993.721E-03    -739.414E-03     993.721E-03
            1786               1     526.357E-03         1.26274    -526.357E-03        -1.26274
            1787               1         1.03306     392.935E-03        -1.03306    -392.935E-03
            1788               1     763.778E-03     716.847E-03     763.778E-03    -716.847E-03
            1789               1     916.494E-03     262.510E-03    -916.494E-03     262.510E-03
            1790               1     703.223E-03     136.695E-03     703.223E-03     136.695E-03
            1791               1     292.248E-03     605.817E-03    -292.248E-03    -605.817E-03
            1792               1     15.2169E-03     850.069E-03     15.2169E-03     850.069E-03
            1793               1     277.153E-03     467.903E-03    -277.153E-03    -467.903E-03
            1794               1         1.36332         1.09927         1.36332        -1.09927
            1795               1         2.17097         1.17208         2.17097        -1.17208
            1796               1         1.98245     348.449E-03        -1.98245    -348.449E-03
            1797               1         1.17838         2.38543         1.17838        -2.38543
            1798               1         3.01844         1.30345         3.01844        -1.30345
            1799               1     747.503E-03     692.554E-03    -747.503E-03     692.554E-03
            1800               1     741.883E-03     815.494E-03     741.883E-03    -815.494E-03
            1801               1     667.242E-03     515.593E-03    -667.242E-03     515.593E-03
            1802               1         1.00994         1.39149         1.00994        -1.39149
            1803               1     744.889E-03     510.907E-03    -744.889E-03     510.907E-03
            1804               1     845.642E-03     767.930E-03    -845.642E-03     767.930E-03
            1805               1         1.96498         2.68050        -1.96498         2.68050
            1806               1         1.75450     314.459E-03        -1.75450     314.459E-03
            1807               1         1.08699     456.687E-03        -1.08699    -456.687E-03
            1808               1         1.16310     743.633E-03        -1.16310     743.633E-03
            1809               1     790.730E-03     767.419E-03     790.730E-03    -767.419E-03
            1810               1         1.89549         1.20538        -1.89549         1.20538
            1811               1         2.83781         1.39300        -2.83781         1.39300
            1812               1     643.450E-03         1.54376    -643.450E-03        -1.54376
            1813               1     469.307E-03     771.902E-03     469.307E-03     771.902E-03
            1814               1         1.57316         1.17842        -1.57316         1.17842
            1815               1         1.55980     711.227E-03        -1.55980     711.227E-03
            1816               1     280.109E-03         1.59394    -280.109E-03        -1.59394
            1817               1         1.59257     736.903E-03         1.59257    -736.903E-03
            1818               1         1.15815     109.046E-03         1.15815     109.046E-03
            1819               1     518.714E-03         1.43392     518.714E-03        -1.43392
            1820               1         1.84259         1.59237         1.84259        -1.59237
            1821               1         1.20947     972.206E-03        -1.20947     972.206E-03
            1822               1         3.02130         1.30555         3.02130        -1.30555
            1823               1     609.879E-03     616.603E-03     609.879E-03    -616.603E-03
            1824               1         2.43094         1.85868         2.43094        -1.85868
            1825               1     582.614E-03     604.018E-03     582.614E-03    -604.018E-03
            1826               1     424.961E-03         1.29562    -424.961E-03        -1.29562
            1827               1         1.04930     425.933E-03         1.04930    -425.933E-03
            1828               1     853.548E-03     559.319E-03    -853.548E-03     559.319E-03
            1829               1         2.70180         1.65913         2.70180        -1.65913
            1830               1     787.170E-03     206.845E-03     787.170E-03    -206.845E-03
            1831               1     698.736E-03         1.68815    -698.736E-03        -1.68815
            1832               1         2.01955     832.293E-03         2.01955    -832.293E-03
            1833               1     119.953E-03         1.69651    -119.953E-03        -1.69651
            1834               1     298.051E-03         1.72955    -298.051E-03        -1.72955
            1835               1         1.33091     553.262E-03        -1.33091    -553.262E-03
            1836               1     460.896E-03     809.620E-03     460.896E-03     809.620E-03
            1837               1     408.655E-03     757.151E-03    -408.655E-03     757.151E-03
            1838               1     777.746E-03     594.645E-03    -777.746E-03     594.645E-03
            1839               1     296.654E-03     929.869E-03     296.654E-03     929.869E-03
            1840               1         1.70847         1.07363         1.70847        -1.07363
            1841               1         1.69978         1.04271         1.69978        -1.04271
            1842               1         1.73840         1.23502         1.73840        -1.23502
            1843               1         1.11081     271.862E-03         1.11081    -271.862E-03
            1844               1         1.07389     264.753E-03         1.07389    -264.753E-03
            1845               1         1.56906     597.431E-03        -1.56906     597.431E-03
            1846               1     985.078E-03         2.25789     985.078E-03        -2.25789
            1847               1     312.733E-03         1.93107    -312.733E-03        -1.93107
            1848               1         1.71930         1.26937         1.71930        -1.26937
            1849               1         1.84501     386.241E-03        -1.84501     386.241E-03
            1850               1     875.664E-03     954.152E-03    -875.664E-03     954.152E-03
            1851               1     110.627E-03     824.728E-03     110.627E-03     824.728E-03
            1852               1     409.749E-03     808.549E-03     409.749E-03    -808.549E-03
            1853               1     876.893E-03     323.105E-03    -876.893E-03     323.105E-03
            1854               1         1.65156         1.65652         1.65156        -1.65652
            1855               1         1.55224     381.910E-03        -1.55224    -381.910E-03
            1856               1     334.440E-03         1.90308    -334.440E-03        -1.90308
            1857               1     996.846E-03         1.48751     996.846E-03        -1.48751
            1858               1         1.86948         1.08700         1.86948        -1.08700
            1859               1         1.95560         1.50965        -1.95560         1.50965
            1860               1         1.72311     424.312E-03        -1.72311    -424.312E-03
            1861               1         1.43392     518.714E-03        -1.43392     518.714E-03
            1862               1         1.33489     734.352E-03        -1.33489    -734.352E-03
            1863               1     135.689E-03         1.52925     135.689E-03        -1.52925
            1864               1         1.55259     406.457E-03        -1.55259    -406.457E-03
            1865               1     142.497E-03     186.899E-03    -142.497E-03    -186.899E-03
            1866               1     348.053E-03     684.223E-03     348.053E-03     684.223E-03
            1867               1     623.800E-03         1.59312    -623.800E-03        -1.59312
            1868               1         2.01451     895.734E-03        -2.01451     895.734E-03
            1869               1         1.04250     866.278E-03        -1.04250     866.278E-03
            1870               1     824.728E-03     110.627E-03     824.728E-03     110.627E-03
            1871               1     802.336E-03         1.78969    -802.336E-03        -1.78969
            1872               1         1.67631         1.11544         1.67631        -1.11544
            1873               1         1.04701     122.037E-03         1.04701    -122.037E-03
            1874               1     342.182E-03     926.046E-03     342.182E-03     926.046E-03
            1875               1     573.793E-03     695.713E-03    -573.793E-03     695.713E-03
            1876               1         1.68815     698.736E-03        -1.68815    -698.736E-03
            1877               1         1.51350     657.787E-03        -1.51350    -657.787E-03
            1878               1     84.4344E-03     333.487E-03     84.4344E-03     333.487E-03
            1879               1     922.707E-03     696.181E-03    -922.707E-03     696.181E-03
            1880               1         1.16598         1.11846        -1.16598         1.11846
            1881               1     961.198E-03     257.836E-03     961.198E-03     257.836E-03
            1882               1         1.49926         1.59418         1.49926        -1.59418
            1883               1         1.84825         1.38016         1.84825        -1.38016
            1884               1         1.87245         1.31860         1.87245        -1.31860
            1885               1         1.25877     447.088E-03        -1.25877    -447.088E-03
            1886               1         1.22158     98.8547E-03         1.22158     98.8547E-03
            1887               1     886.007E-03     60.9431E-03    -886.007E-03    -60.9431E-03
            1888               1     433.045E-03     541.909E-03     433.045E-03     541.909E-03
            1889               1     408.587E-03         1.35675    -408.587E-03        -1.35675
            1890               1         1.44285     952.047E-03         1.44285    -952.047E-03
            1891               1         1.28722     181.845E-03         1.28722     181.845E-03
            1892               1         1.98613         2.40569        -1.98613         2.40569
            1893               1     926.046E-03     342.182E-03     926.046E-03     342.182E-03
            1894               1         1.18338     2.68239E-03         1.18338    -2.68239E-03
            1895               1         1.11921     397.710E-03         1.11921    -397.710E-03
            1896               1         1.67306         1.57110         1.67306        -1.57110
            1897               1     155.575E-03     75.3442E-03     155.575E-03    -75.3442E-03
            1898               1         1.29853     478.683E-03        -1.29853    -478.683E-03
            1899               1         1.99113         2.18885        -1.99113         2.18885
            1900               1         1.33183     684.177E-03         1.33183    -684.177E-03
            1901               1     320.482E-03     656.759E-03     320.482E-03     656.759E-03
            1902               1     52.2836E-03     131.712E-03     52.2836E-03    -131.712E-03
            1903               1     948.709E-03         1.37014    -948.709E-03        -1.37014
            1904               1         1.00008     549.796E-03         1.00008    -549.796E-03
            1905               1         1.33610     625.064E-03        -1.33610     625.064E-03
            1906               1         2.40799         1.56215         2.40799        -1.56215
            1907               1         1.02418     971.829E-03         1.02418    -971.829E-03
            1908               1     935.127E-03     295.683E-03     935.127E-03     295.683E-03
            1909               1         1.67008     539.912E-03        -1.67008     539.912E-03
            1910               1     514.145E-03         1.62750     514.145E-03        -1.62750
            1911               1         2.57116         1.39709         2.57116        -1.39709
            1912               1         2.12228         1.26687         2.12228        -1.26687
            1913               1         1.58973         1.98084         1.58973        -1.98084
            1914               1         2.14134         1.21618         2.14134        -1.21618
            1915               1     379.453E-03         1.58115    -379.453E-03        -1.58115
            1916               1     24.3548E-03     94.9064E-03     24.3548E-03    -94.9064E-03
            1917               1         1.31744     911.490E-03        -1.31744    -911.490E-03
            1918               1     948.984E-03     80.4992E-03     948.984E-03    -80.4992E-03
            1919               1         1.88463         1.04206         1.88463        -1.04206
            1920               1     231.363E-03         1.76779    -231.363E-03        -1.76779
            1921               1         1.47240     433.190E-03        -1.47240    -433.190E-03
            1922               1         1.04139     815.617E-03        -1.04139     815.617E-03
            1923               1     398.500E-03     863.682E-03     398.500E-03     863.682E-03
            1924               1     387.428E-03     341.816E-03     387.428E-03     341.816E-03
            1925               1         1.53794     446.372E-03        -1.53794    -446.372E-03
            1926               1     737.592E-03         1.35457     737.592E-03        -1.35457
            1927               1         2.52790         1.85322        -2.52790         1.85322
            1928               1         1.25093     95.0190E-03        -1.25093    -95.0190E-03
            1929               1     344.652E-03     688.800E-03    -344.652E-03    -688.800E-03
            1930               1         1.75906     173.926E-03        -1.75906     173.926E-03
            1931               1     794.107E-03         1.13893     794.107E-03        -1.13893
            1932               1         1.03144     376.918E-03        -1.03144    -376.918E-03
            1933               1         1.10730     231.814E-03         1.10730    -231.814E-03
            1934               1     110.174E-03         1.11072     110.174E-03         1.11072
            1935               1         2.38543         1.17838        -2.38543         1.17838
            1936               1         1.12931         1.20694        -1.12931         1.20694
            1937               1         2.38397         1.98540        -2.38397         1.98540
            1938               1     863.682E-03     398.500E-03     863.682E-03     398.500E-03
            1939               1     691.112E-03         1.53103    -691.112E-03        -1.53103
            1940               1     691.471E-03     89.5788E-03     691.471E-03    -89.5788E-03
            1941               1     555.501E-03     868.086E-03     555.501E-03    -868.086E-03
            1942               1     245.062E-03         1.23603     245.062E-03         1.23603
            1943               1         1.69091     648.897E-03        -1.69091    -648.897E-03
            1944               1         1.74637         1.92064         1.74637        -1.92064
            1945               1     971.139E-03     142.572E-03     971.139E-03    -142.572E-03
            1946               1         2.02770         1.09019         2.02770        -1.09019
            1947               1     148.693E-03         1.72651    -148.693E-03        -1.72651
            1948               1         1.59353     18.4908E-03         1.59353     18.4908E-03
            1949               1     159.628E-03     423.877E-03     159.628E-03     423.877E-03
            1950               1         1.15424     882.498E-03        -1.15424    -882.498E-03
            1951               1     290.667E-03     413.737E-03     290.667E-03     413.737E-03
            1952               1         1.83256         2.09988        -1.83256         2.09988
            1953               1     167.028E-03     397.080E-03    -167.028E-03    -397.080E-03
            1954               1     268.029E-03     764.686E-03     268.029E-03     764.686E-03
            1955               1     107.661E-03     394.303E-03    -107.661E-03    -394.303E-03
            1956               1     646.953E-03     272.736E-03    -646.953E-03    -272.736E-03
            1957               1         1.37893         1.06575        -1.37893         1.06575
            1958               1         1.19620     492.252E-03        -1.19620     492.252E-03
            1959               1     318.252E-03     431.687E-03    -318.252E-03    -431.687E-03
            1960               1     2.88164E-03     395.619E-03    -2.88164E-03    -395.619E-03
            1961               1     395.619E-03     2.88164E-03    -395.619E-03    -2.88164E-03
            1962               1         1.09703         1.33615         1.09703        -1.33615
            1963               1         1.13404         1.32487         1.13404        -1.32487
            1964               1     324.682E-03         1.00037     324.682E-03         1.00037
            1965               1     32.7360E-03     100.793E-03     32.7360E-03    -100.793E-03
            1966               1         1.58779         1.18523         1.58779        -1.18523
            1967               1         2.15938         1.44833         2.15938        -1.44833
            1968               1     373.182E-03     771.845E-03     373.182E-03     771.845E-03
            1969               1     649.077E-03     509.566E-03    -649.077E-03     509.566E-03
            1970               1     307.138E-03     783.487E-03     307.138E-03     783.487E-03
            1971               1     830.329E-03     527.272E-03    -830.329E-03     527.272E-03
            1972               1         1.32136         1.29722         1.32136        -1.29722
            1973               1     773.863E-03     492.037E-03    -773.863E-03    -492.037E-03
            1974               1     91.4444E-03     151.263E-03    -91.4444E-03    -151.263E-03
            1975               1         1.69146         1.63398         1.69146        -1.63398
            1976               1     405.496E-03     371.569E-03     405.496E-03    -371.569E-03
            1977               1         1.11056     170.851E-03        -1.11056     170.851E-03
            1978               1         1.12152         1.38871         1.12152        -1.38871
            1979               1         1.23069     895.570E-03        -1.23069     895.570E-03
            1980               1         1.24141         1.15049         1.24141        -1.15049
            1981               1         2.43220         1.47445         2.43220        -1.47445
            1982               1         1.97313         1.83239        -1.97313         1.83239
            1983               1         2.29950         1.52672         2.29950        -1.52672
            1984               1     992.179E-03     840.508E-03    -992.179E-03     840.508E-03
            1985               1     165.869E-03     407.633E-03    -165.869E-03    -407.633E-03
            1986               1     372.736E-03         1.39091    -372.736E-03        -1.39091
            1987               1     891.707E-03         1.31775    -891.707E-03         1.31775
            1988               1         1.30707     714.732E-03         1.30707    -714.732E-03
            1989               1     829.673E-03         1.07678     829.673E-03        -1.07678
            1990               1         1.94383     952.244E-03         1.94383    -952.244E-03
            1991               1         1.30798     860.756E-03         1.30798    -860.756E-03
            1992               1     432.549E-03         1.37497    -432.549E-03        -1.37497
            1993               1     570.999E-03         1.26886     570.999E-03        -1.26886
            1994               1         1.33162     768.167E-03         1.33162    -768.167E-03
            1995               1     540.984E-03     128.414E-03     540.984E-03    -128.414E-03
            1996               1     863.833E-03     467.127E-03    -863.833E-03     467.127E-03
            1997               1         1.26533         1.18088        -1.26533        -1.18088
            1998               1         1.08777     417.620E-03        -1.08777     417.620E-03
            1999               1     578.541E-03     165.285E-03     578.541E-03    -165.285E-03
            2000               1         1.15316     898.946E-03         1.15316    -898.946E-03
            2001               1         2.71237     420.296E-03         2.71237     420.296E-03
            2002               1     491.261E-03     358.379E-03    -491.261E-03    -358.379E-03
            2003               1     935.026E-03     99.5510E-03     935.026E-03     99.5510E-03
            2004               1     732.538E-03         1.28606     732.538E-03        -1.28606
            2005               1         4.23913     450.231E-03         4.23913     450.231E-03
            2006               1     890.307E-03     655.914E-03    -890.307E-03     655.914E-03
            2007               1         1.48900     559.167E-03        -1.48900    -559.167E-03
            2008               1     862.413E-03     232.313E-03    -862.413E-03     232.313E-03
            2009               1         1.16218     396.911E-03         1.16218     396.911E-03
            2010               1     850.805E-03         1.34464    -850.805E-03         1.34464
            2011               1         3.00751     469.307E-03         3.00751     469.307E-03
            2012               1         1.18320     902.604E-03        -1.18320     902.604E-03
            2013               1     554.625E-03     624.734E-03     554.625E-03     624.734E-03
            2014               1         5.13725     921.515E-03         5.13725     921.515E-03
            2015               1     832.716E-03         1.27226    -832.716E-03         1.27226
            2016               1         5.26190     947.691E-03         5.26190     947.691E-03
            2017               1         1.24301     768.446E-03        -1.24301     768.446E-03
            2018               1         5.32425     965.160E-03         5.32425     965.160E-03
            2019               1     637.491E-03         4.52174    -637.491E-03        -4.52174
            2020               1     841.461E-03     265.344E-03     841.461E-03     265.344E-03
            2021               1         3.01762     39.2312E-03         3.01762     39.2312E-03
            2022               1     429.392E-03         3.51686    -429.392E-03        -3.51686
            2023               1         1.91206     357.360E-03        -1.91206    -357.360E-03
            2024               1     784.210E-03         1.33697    -784.210E-03         1.33697
            2025               1         5.26653     989.550E-03         5.26653     989.550E-03
            2026               1         4.85652     564.377E-03         4.85652     564.377E-03
            2027               1     531.410E-03     227.575E-03    -531.410E-03    -227.575E-03
            2028               1         1.27097     406.877E-03         1.27097    -406.877E-03
            2029               1     281.275E-03     577.924E-03    -281.275E-03    -577.924E-03
            2030               1     884.870E-03         1.29582     884.870E-03        -1.29582
            2031               1     358.056E-03         1.75287    -358.056E-03        -1.75287
            2032               1     555.444E-03         4.71872     555.444E-03         4.71872
            2033               1         1.11584     474.697E-03         1.11584    -474.697E-03
            2034               1     520.247E-03         4.60017     520.247E-03         4.60017
            2035               1     193.664E-03         3.15110    -193.664E-03        -3.15110
            2036               1     499.426E-03         3.83044    -499.426E-03         3.83044
            2037               1     461.079E-03     60.3498E-03     461.079E-03    -60.3498E-03
            2038               1         5.15939         8.16139        -5.15939        -8.16139
            2039               1         1.27847     811.739E-03         1.27847    -811.739E-03
            2040               1     259.589E-03     736.754E-03    -259.589E-03     736.754E-03
            2041               1     212.274E-03         1.16378     212.274E-03         1.16378
            2042               1     21.7482E-03     43.1419E-03     21.7482E-03     43.1419E-03
            2043               1     67.5658E-03     6.91392E-03    -67.5658E-03     6.91392E-03
            2044               1     515.702E-03         1.25317     515.702E-03        -1.25317
            2045               1         1.33233     832.517E-03         1.33233    -832.517E-03
            2046               1         4.95611     595.259E-03         4.95611     595.259E-03
            2047               1     750.053E-03     282.811E-03     750.053E-03    -282.811E-03
            2048               1     895.133E-03     385.937E-03     895.133E-03    -385.937E-03
            2049               1         5.74014         6.72249        -5.74014        -6.72249
            2050               1     652.329E-03         1.25460     652.329E-03        -1.25460
            2051               1     951.791E-03     59.3091E-03     951.791E-03    -59.3091E-03
            2052               1     678.434E-03         4.57986    -678.434E-03        -4.57986
            2053               1         1.05398         1.06407         1.05398        -1.06407
            2054               1     206.351E-03         4.37195     206.351E-03         4.37195
            2055               1         1.34773     820.380E-03         1.34773    -820.380E-03
            2056               1         1.18440     737.770E-03        -1.18440     737.770E-03
            2057               1     207.853E-03         2.62292     207.853E-03         2.62292
            2058               1         1.29317     439.376E-03         1.29317    -439.376E-03
            2059               1         2.34716     430.882E-03        -2.34716    -430.882E-03
            2060               1     331.244E-03         4.34439    -331.244E-03        -4.34439
            2061               1     161.588E-03     282.419E-03    -161.588E-03    -282.419E-03
            2062               1     783.539E-03         1.31712    -783.539E-03         1.31712
            2063               1     450.711E-03     73.1214E-03     450.711E-03    -73.1214E-03
            2064               1     911.829E-03     824.219E-03    -911.829E-03     824.219E-03
            2065               1         4.06614     686.624E-03         4.06614     686.624E-03
            2066               1     546.649E-03         2.71800    -546.649E-03        -2.71800
            2067               1     424.252E-03         1.51188     424.252E-03        -1.51188
            2068               1         4.57986     678.434E-03        -4.57986    -678.434E-03
            2069               1     419.762E-03         1.52409     419.762E-03        -1.52409
            2070               1     10.9327E-03     69.4489E-03     10.9327E-03    -69.4489E-03
            2071               1     585.427E-03         1.31783     585.427E-03        -1.31783
            2072               1     240.447E-03         2.89911     240.447E-03         2.89911
            2073               1         1.08734     333.833E-03        -1.08734    -333.833E-03
            2074               1         1.29871     458.962E-03         1.29871    -458.962E-03
            2075               1         2.04358     174.714E-03         2.04358     174.714E-03
            2076               1         5.30077     957.168E-03         5.30077     957.168E-03
            2077               1     281.608E-03         2.69249    -281.608E-03        -2.69249
            2078               1     624.716E-03         1.27776     624.716E-03        -1.27776
            2079               1     889.575E-03     64.9006E-03    -889.575E-03     64.9006E-03
            2080               1         5.28677     988.600E-03         5.28677     988.600E-03
            2081               1     884.080E-03     118.088E-03     884.080E-03     118.088E-03
            2082               1     496.667E-03     524.071E-03     496.667E-03     524.071E-03
            2083               1     695.582E-03     260.162E-03     695.582E-03    -260.162E-03
            2084               1         4.52078     652.667E-03        -4.52078    -652.667E-03
            2085               1     738.084E-03     897.547E-03     738.084E-03    -897.547E-03
            2086               1         1.41906     844.200E-03         1.41906    -844.200E-03
            2087               1         1.13143     20.9014E-03         1.13143    -20.9014E-03
            2088               1         1.06929         1.11448        -1.06929         1.11448
            2089               1     186.926E-03     749.076E-03    -186.926E-03     749.076E-03
            2090               1         2.41350     382.543E-03         2.41350     382.543E-03
            2091               1         1.07454     145.272E-03         1.07454    -145.272E-03
            2092               1     949.321E-03     15.1470E-03     949.321E-03     15.1470E-03
            2093               1     159.314E-03     940.855E-03    -159.314E-03    -940.855E-03
            2094               1         1.03943     457.347E-03         1.03943    -457.347E-03
            2095               1         2.62292     207.853E-03         2.62292     207.853E-03
            2096               1     607.630E-03         4.78761     607.630E-03         4.78761
            2097               1     224.687E-03     65.8290E-03     224.687E-03     65.8290E-03
            2098               1     958.525E-03     146.946E-03    -958.525E-03    -146.946E-03
            2099               1     724.713E-03         1.24691     724.713E-03        -1.24691
            2100               1     902.681E-03     742.188E-03    -902.681E-03     742.188E-03
            2101               1     284.459E-03     154.274E-03    -284.459E-03    -154.274E-03
            2102               1     256.121E-03     9.89873E-03     256.121E-03    -9.89873E-03
            2103               1         5.26288     84.8529E-03        -5.26288    -84.8529E-03
            2104               1     669.806E-03     500.056E-03     669.806E-03     500.056E-03
            2105               1         4.28733     735.437E-03         4.28733     735.437E-03
            2106               1         4.48657     779.282E-03         4.48657     779.282E-03
            2107               1     61.5765E-03     58.2898E-03     61.5765E-03    -58.2898E-03
            2108               1     734.007E-03         1.28579     734.007E-03        -1.28579
            2109               1     886.129E-03         1.22611    -886.129E-03         1.22611
            2110               1         1.30270     464.704E-03         1.30270    -464.704E-03
            2111               1     584.779E-03     198.255E-03     584.779E-03    -198.255E-03
            2112               1         2.25860     6.21214E-03         2.25860     6.21214E-03
            2113               1         1.76353         1.63360        -1.76353        -1.63360
            2114               1         3.96232     151.637E-03         3.96232    -151.637E-03
            2115               1     232.134E-03         4.40693     232.134E-03         4.40693
            2116               1     465.007E-03     862.404E-03     465.007E-03    -862.404E-03
            2117               1     263.267E-03         4.45789     263.267E-03         4.45789
            2118               1         1.56107     622.902E-03         1.56107    -622.902E-03
            2119               1         1.18672     283.655E-03         1.18672    -283.655E-03
            2120               1     228.270E-03     100.257E-03    -228.270E-03    -100.257E-03
            2121               1     179.770E-03     435.361E-03    -179.770E-03    -435.361E-03
            2122               1         3.82512     633.902E-03         3.82512     633.902E-03
            2123               1         1.20262         1.28539        -1.20262        -1.28539
            2124               1     527.882E-03     103.330E-03     527.882E-03    -103.330E-03
            2125               1         3.29319     523.192E-03         3.29319     523.192E-03
            2126               1     281.240E-03         3.94176     281.240E-03        -3.94176
            2127               1         1.74840         4.15390         1.74840        -4.15390
            2128               1         1.36813     799.953E-03         1.36813    -799.953E-03
            2129               1     894.585E-03         1.24929    -894.585E-03         1.24929
            2130               1         1.30172     709.454E-03         1.30172    -709.454E-03
            2131               1     788.545E-03     133.210E-03     788.545E-03    -133.210E-03
            2132               1     584.417E-03     171.857E-03     584.417E-03    -171.857E-03
            2133               1     950.340E-03         1.19556    -950.340E-03         1.19556
            2134               1         1.26256     122.710E-03        -1.26256    -122.710E-03
            2135               1     170.110E-03     674.685E-03    -170.110E-03     674.685E-03
            2136               1     914.087E-03         1.22229    -914.087E-03         1.22229
            2137               1     884.404E-03     119.885E-03     884.404E-03     119.885E-03
            2138               1     302.613E-03     434.006E-03    -302.613E-03    -434.006E-03
            2139               1         1.93840     945.540E-03        -1.93840     945.540E-03
            2140               1     141.559E-03         2.00020    -141.559E-03        -2.00020
            2141               1         1.23215     346.459E-03         1.23215    -346.459E-03
            2142               1     716.764E-03         1.23899     716.764E-03        -1.23899
            2143               1     778.321E-03         1.32392    -778.321E-03         1.32392
            2144               1         1.94296         1.06818        -1.94296        -1.06818
            2145               1     627.741E-03     212.461E-03     627.741E-03    -212.461E-03
            2146               1     712.166E-03     126.999E-03    -712.166E-03    -126.999E-03
            2147               1     784.998E-03     318.529E-03     784.998E-03    -318.529E-03
            2148               1         4.63727     679.131E-03        -4.63727    -679.131E-03
            2149               1     819.271E-03     906.191E-03     819.271E-03    -906.191E-03
            2150               1         3.56645     578.770E-03         3.56645     578.770E-03
            2151               1     417.056E-03         4.88747    -417.056E-03        -4.88747
            2152               1     663.513E-03         1.27310     663.513E-03        -1.27310
            2153               1         1.28938     757.575E-03         1.28938    -757.575E-03
            2154               1         1.26563     401.146E-03         1.26563    -401.146E-03
            2155               1         1.24318     532.875E-03         1.24318    -532.875E-03
            2156               1         1.50416     179.360E-03        -1.50416    -179.360E-03
            2157               1         2.92357         1.03640        -2.92357        -1.03640
            2158               1         4.66245     817.694E-03         4.66245     817.694E-03
            2159               1         1.03635     910.787E-03         1.03635    -910.787E-03
            2160               1         1.70452     363.308E-03         1.70452     363.308E-03
            2161               1         1.36445     959.656E-03        -1.36445     959.656E-03
            2162               1     767.468E-03     326.553E-03     767.468E-03     326.553E-03
            2163               1         1.23204     801.471E-03         1.23204    -801.471E-03
            2164               1         1.34299     778.449E-03         1.34299    -778.449E-03
            2165               1         4.94323     879.142E-03         4.94323     879.142E-03
            2166               1         1.02985         1.09331         1.02985        -1.09331
            2167               1     458.575E-03         1.50409    -458.575E-03        -1.50409
            2168               1     198.370E-03         1.80621     198.370E-03        -1.80621
            2169               1     6.47375E-03     124.504E-03    -6.47375E-03    -124.504E-03
            2170               1     526.565E-03         1.38064     526.565E-03        -1.38064
            2171               1         1.24250     879.845E-03         1.24250    -879.845E-03
            2172               1     689.035E-03         1.27005     689.035E-03        -1.27005
            2173               1         1.35096     843.292E-03         1.35096    -843.292E-03
            2174               1     630.029E-03         1.28585     630.029E-03        -1.28585
            2175               1     417.069E-03     691.591E-03     417.069E-03     691.591E-03
            2176               1         5.33509     977.575E-03         5.33509     977.575E-03
            2177               1         1.37052     825.307E-03         1.37052    -825.307E-03
            2178               1     720.162E-03         1.27555     720.162E-03        -1.27555
            2179               1         1.43442     911.297E-03        -1.43442     911.297E-03
            2180               1     732.697E-03         1.28338     732.697E-03        -1.28338
            2181               1         1.94519     778.824E-03        -1.94519     778.824E-03
            2182               1         1.27997     742.507E-03        -1.27997     742.507E-03
            2183               1         5.31802     985.158E-03         5.31802     985.158E-03
            2184               1         1.34500     789.059E-03         1.34500    -789.059E-03
            2185               1         1.27600     782.277E-03        -1.27600     782.277E-03
            2186               1         5.20759     936.209E-03         5.20759     936.209E-03
            2187               1         5.30402     987.292E-03         5.30402     987.292E-03
            2188               1     476.279E-03         4.38579     476.279E-03         4.38579
            2189               1     652.667E-03         4.52078    -652.667E-03        -4.52078
            2190               1         5.32861     981.922E-03         5.32861     981.922E-03
            2191               1     708.251E-03         1.23395     708.251E-03        -1.23395
            2192               1     350.916E-03         1.46485     350.916E-03        -1.46485
            2193               1     687.314E-03         1.23455     687.314E-03        -1.23455
            2194               1     156.264E-03         3.71666    -156.264E-03         3.71666
            2195               1     584.440E-03         4.76946     584.440E-03         4.76946
            2196               1         1.28475     571.222E-03         1.28475    -571.222E-03
            2197               1     802.011E-03         1.30894    -802.011E-03         1.30894
            2198               1     675.456E-03         4.55758    -675.456E-03        -4.55758
            2199               1         1.07485         1.43665        -1.07485        -1.43665
            2200               1         1.20372     222.769E-03         1.20372    -222.769E-03
            2201               1     830.993E-03         1.28667    -830.993E-03         1.28667
            2202               1         1.26628     737.374E-03        -1.26628     737.374E-03
            2203               1     813.501E-03     210.340E-03     813.501E-03    -210.340E-03
            2204               1     578.993E-03         4.57990    -578.993E-03        -4.57990
            2205               1     865.288E-03         1.23799    -865.288E-03         1.23799
            2206               1     780.195E-03         1.32976    -780.195E-03         1.32976
            2207               1     771.960E-03     323.850E-03     771.960E-03    -323.850E-03
            2208               1         1.27755     744.396E-03        -1.27755     744.396E-03
            2209               1     896.206E-03         1.15626    -896.206E-03         1.15626
            2210               1         1.35066     784.386E-03         1.35066    -784.386E-03
            2211               1     914.435E-03         1.04217    -914.435E-03         1.04217
            2212               1     707.509E-03         1.27182     707.509E-03        -1.27182
            2213               1     581.033E-03     127.385E-03     581.033E-03    -127.385E-03
            2214               1     611.170E-03     803.895E-03     611.170E-03     803.895E-03
            2215               1         6.54993         7.47569        -6.54993        -7.47569
            2216               1     416.373E-03         1.08743     416.373E-03        -1.08743
            2217               1     663.071E-03         4.52784    -663.071E-03        -4.52784
            2218               1         5.96476     161.814E-03        -5.96476    -161.814E-03
            2219               1     821.990E-03         2.81995    -821.990E-03        -2.81995
            2220               1     641.238E-03     155.203E-03    -641.238E-03    -155.203E-03
            2221               1     84.8529E-03         5.26288    -84.8529E-03        -5.26288
            2222               1     859.397E-03         1.34281    -859.397E-03         1.34281
            2223               1         1.54711     650.018E-03         1.54711    -650.018E-03
            2224               1     395.969E-03         1.81912    -395.969E-03        -1.81912
            2225               1         1.09395     551.300E-03        -1.09395    -551.300E-03
            2226               1         1.16500     51.3023E-03        -1.16500     51.3023E-03
            2227               1         2.41533     567.708E-03         2.41533     567.708E-03
            2228               1     136.462E-03         4.20336    -136.462E-03         4.20336
            2229               1     359.095E-03         4.09325    -359.095E-03        -4.09325
            2230               1     911.246E-03         1.07107     911.246E-03        -1.07107
            2231               1     430.882E-03         2.34716    -430.882E-03        -2.34716
            2232               1     683.631E-03     263.018E-03     683.631E-03    -263.018E-03
            2233               1     457.078E-03     223.751E-03    -457.078E-03    -223.751E-03
            2234               1     249.233E-03         1.27784     249.233E-03        -1.27784
            2235               1     618.120E-03     211.942E-03     618.120E-03    -211.942E-03
            2236               1     410.473E-03         2.05755    -410.473E-03        -2.05755
            2237               1     357.943E-03     145.395E-03     357.943E-03    -145.395E-03
            2238               1     39.2312E-03         3.01762     39.2312E-03         3.01762
            2239               1         4.92381     615.198E-03         4.92381     615.198E-03
            2240               1     367.348E-03         1.26771    -367.348E-03         1.26771
            2241               1     987.974E-03         1.93585    -987.974E-03         1.93585
            2242               1     780.915E-03     480.445E-03     780.915E-03     480.445E-03
            2243               1     467.201E-03         1.46452     467.201E-03         1.46452
            2244               1     98.4369E-03         3.45379     98.4369E-03         3.45379
            2245               1     484.034E-03     102.073E-03     484.034E-03    -102.073E-03
            2246               1         1.18272     826.594E-03        -1.18272     826.594E-03
            2247               1     948.465E-03     165.541E-03    -948.465E-03    -165.541E-03
            2248               1     164.629E-03         1.67243     164.629E-03         1.67243
            2249               1         1.02634     470.542E-03         1.02634    -470.542E-03
            2250               1     203.491E-03     645.736E-03    -203.491E-03    -645.736E-03
            2251               1     153.722E-03     3.31385E-03     153.722E-03     3.31385E-03
            2252               1     949.442E-03     12.2304E-03     949.442E-03     12.2304E-03
            2253               1     857.079E-03     359.165E-03    -857.079E-03     359.165E-03
            2254               1     698.772E-03         1.23234     698.772E-03        -1.23234
            2255               1     876.444E-03     564.846E-03    -876.444E-03     564.846E-03
            2256               1     277.030E-03         3.16577     277.030E-03         3.16577
            2257               1         1.22944     551.656E-03         1.22944    -551.656E-03
            2258               1         1.25612     118.792E-03        -1.25612    -118.792E-03
            2259               1     882.515E-03     394.526E-03     882.515E-03    -394.526E-03
            2260               1         1.08224     107.718E-03        -1.08224    -107.718E-03
            2261               1     670.427E-03         4.54031    -670.427E-03        -4.54031
            2262               1     672.414E-03         1.24139     672.414E-03        -1.24139
            2263               1     916.949E-03     901.855E-03    -916.949E-03     901.855E-03
            2264               1         1.32640     833.521E-03         1.32640    -833.521E-03
            2265               1     211.343E-03         4.31392    -211.343E-03        -4.31392
            2266               1         8.44375         5.52723        -8.44375        -5.52723
            2267               1     4.58482E-03     89.9862E-03     4.58482E-03    -89.9862E-03
            2268               1         1.27023     747.732E-03        -1.27023     747.732E-03
            2269               1     917.742E-03     974.834E-03    -917.742E-03     974.834E-03
            2270               1     450.231E-03         4.23913     450.231E-03         4.23913
            2271               1     907.242E-03         1.10286    -907.242E-03         1.10286
            2272               1     499.452E-03         4.50596     499.452E-03         4.50596
            2273               1         1.16969         1.03081        -1.16969         1.03081
            2274               1         2.51370     13.5593E-03         2.51370     13.5593E-03
            2275               1     522.181E-03         4.67770    -522.181E-03        -4.67770
            2276               1     189.269E-03         1.82119     189.269E-03        -1.82119
            2277               1     881.900E-03         1.20136    -881.900E-03         1.20136
            2278               1     538.829E-03         4.66986     538.829E-03         4.66986
            2279               1     614.520E-03         4.53703    -614.520E-03        -4.53703
            2280               1     525.254E-03         1.38892     525.254E-03        -1.38892
            2281               1     847.833E-03         1.26631    -847.833E-03         1.26631
            2282               1     570.519E-03         4.75047     570.519E-03         4.75047
            2283               1         1.37336     817.318E-03         1.37336    -817.318E-03
            2284               1         1.37316     810.604E-03         1.37316    -810.604E-03
            2285               1     728.748E-03         1.28340     728.748E-03        -1.28340
            2286               1     269.641E-03     639.684E-03    -269.641E-03    -639.684E-03
            2287               1     815.482E-03         1.30045    -815.482E-03         1.30045
            2288               1     597.027E-03         4.78053     597.027E-03         4.78053
            2289               1     677.913E-03         4.66724    -677.913E-03        -4.66724
            2290               1         2.51341     3.48378E-03         2.51341     3.48378E-03
            2291               1     791.246E-03         1.31383    -791.246E-03         1.31383
            2292               1     615.859E-03         4.79463     615.859E-03         4.79463
            2293               1     679.545E-03         4.60698    -679.545E-03        -4.60698
            2294               1     679.131E-03         4.63727    -679.131E-03        -4.63727
            2295               1     779.241E-03         1.32007    -779.241E-03         1.32007
            2296               1         1.33630     772.890E-03         1.33630    -772.890E-03
            2297               1     710.077E-03     363.571E-03    -710.077E-03    -363.571E-03
            2298               1         1.28411     781.344E-03         1.28411    -781.344E-03
            2299               1         1.09305         1.00903         1.09305        -1.00903
            2300               1         1.36364     795.234E-03         1.36364    -795.234E-03
            2301               1         1.87974     653.873E-03        -1.87974    -653.873E-03
            2302               1     848.084E-03         1.30113     848.084E-03        -1.30113
            2303               1     676.078E-03         4.71010    -676.078E-03        -4.71010
            2304               1         1.37131     804.910E-03         1.37131    -804.910E-03
            2305               1     260.724E-03         4.26910    -260.724E-03        -4.26910
            2306               1     870.614E-03         1.26284    -870.614E-03         1.26284
            2307               1         1.27800     869.893E-03         1.27800    -869.893E-03
            2308               1         1.28151     743.230E-03        -1.28151     743.230E-03
            2309               1     728.253E-03         1.27971     728.253E-03        -1.27971
            2310               1         1.28234     742.961E-03        -1.28234     742.961E-03
            2311               1         5.33473     971.978E-03         5.33473     971.978E-03
            2312               1         1.36335     834.214E-03         1.36335    -834.214E-03
            2313               1         1.25890     754.922E-03        -1.25890     754.922E-03
            2314               1         1.33230     852.162E-03         1.33230    -852.162E-03
            2315               1     337.649E-03         1.25846    -337.649E-03         1.25846
            2316               1         3.82202     136.591E-03         3.82202     136.591E-03
            2317               1     462.563E-03         2.38161    -462.563E-03        -2.38161
            2318               1         1.20198     832.361E-03        -1.20198     832.361E-03
            2319               1     586.843E-03         1.31654     586.843E-03        -1.31654
            2320               1         1.22316     792.083E-03        -1.22316     792.083E-03
            2321               1         5.04977     902.608E-03         5.04977     902.608E-03
            2322               1         1.20125     889.864E-03         1.20125    -889.864E-03
            2323               1         1.27392         1.17103         1.27392        -1.17103
            2324               1         1.80621     198.370E-03        -1.80621     198.370E-03
            2325               1         4.81466     850.900E-03         4.81466     850.900E-03
            2326               1         1.09797     906.123E-03         1.09797    -906.123E-03
            2327               1         1.58576         1.40411         1.58576        -1.40411
            2328               1     101.518E-03         5.26260    -101.518E-03        -5.26260
            2329               1     439.174E-03         2.40785    -439.174E-03        -2.40785
            2330               1         1.19826         2.23057        -1.19826        -2.23057
            2331               1         1.08930     108.759E-03        -1.08930    -108.759E-03
            2332               1         1.26862     830.750E-03        -1.26862     830.750E-03
            2333               1     932.771E-03     103.554E-03     932.771E-03     103.554E-03
            2334               1     248.330E-03         2.71705    -248.330E-03        -2.71705
            2335               1         7.37250         6.48587        -7.37250        -6.48587
            2336               1         1.30113     848.084E-03        -1.30113     848.084E-03
            2337               1     565.492E-03         1.24466     565.492E-03        -1.24466
            2338               1     652.848E-03     886.055E-03     652.848E-03    -886.055E-03
            2339               1     291.957E-03     785.775E-03    -291.957E-03    -785.775E-03
            2340               1         1.92447     925.546E-03        -1.92447     925.546E-03
            2341               1     536.138E-03         1.08366    -536.138E-03        -1.08366
            2342               1         1.09310     595.518E-03        -1.09310     595.518E-03
            2343               1     820.655E-03         1.32776    -820.655E-03         1.32776
            2344               1     280.104E-03         3.98707     280.104E-03        -3.98707
            2345               1     588.441E-03     174.745E-03    -588.441E-03    -174.745E-03
            2346               1     416.711E-03         2.11533    -416.711E-03        -2.11533
            2347               1     555.365E-03     141.672E-03     555.365E-03    -141.672E-03
            2348               1     377.037E-03         1.65442    -377.037E-03        -1.65442
            2349               1         2.37808         4.42597        -2.37808        -4.42597
            2350               1     519.982E-03     385.215E-03    -519.982E-03    -385.215E-03
            2351               1         1.66425     160.251E-03         1.66425     160.251E-03
            2352               1         2.10423     364.494E-03         2.10423     364.494E-03
            2353               1     60.3498E-03     461.079E-03    -60.3498E-03     461.079E-03
            2354               1         1.18496     110.781E-03         1.18496    -110.781E-03
            2355               1         1.25827     516.759E-03        -1.25827     516.759E-03
            2356               1         4.86369     623.271E-03         4.86369     623.271E-03
            2357               1     121.045E-03     405.043E-03    -121.045E-03    -405.043E-03
            2358               1     104.622E-03         3.65777     104.622E-03         3.65777
            2359               1         1.23747     680.592E-03        -1.23747     680.592E-03
            2360               1         4.72107     542.637E-03         4.72107     542.637E-03
            2361               1     995.214E-03     363.252E-03     995.214E-03    -363.252E-03
            2362               1     863.531E-03         1.35990     863.531E-03        -1.35990
            2363               1     870.469E-03         1.33803    -870.469E-03         1.33803
            2364               1         1.26159     619.919E-03         1.26159    -619.919E-03
            2365               1         1.18405         2.23481        -1.18405        -2.23481
            2366               1     341.603E-03         4.23292    -341.603E-03        -4.23292
            2367               1         3.64541     364.825E-03         3.64541     364.825E-03
            2368               1         1.39091     372.736E-03        -1.39091    -372.736E-03
            2369               1         1.09471     678.447E-03        -1.09471     678.447E-03
            2370               1     921.255E-03         1.22714    -921.255E-03         1.22714
            2371               1         1.21803     761.165E-03        -1.21803     761.165E-03
            2372               1         1.15897         2.64454        -1.15897        -2.64454
            2373               1         4.67770     522.181E-03        -4.67770    -522.181E-03
            2374               1     709.985E-03         1.21783     709.985E-03        -1.21783
            2375               1     812.709E-03         1.27126    -812.709E-03         1.27126
            2376               1         3.69489     443.771E-03         3.69489    -443.771E-03
            2377               1     659.692E-03         2.02534     659.692E-03        -2.02534
            2378               1     108.093E-03         1.71811     108.093E-03        -1.71811
            2379               1     904.857E-03     273.272E-03     904.857E-03    -273.272E-03
            2380               1     273.149E-03         4.26285    -273.149E-03        -4.26285
            2381               1     353.761E-03         1.43831     353.761E-03        -1.43831
            2382               1     200.362E-03         1.11658     200.362E-03        -1.11658
            2383               1         4.54031     670.427E-03        -4.54031    -670.427E-03
            2384               1     312.038E-03         3.29183    -312.038E-03        -3.29183
            2385               1         1.73647     95.0308E-03        -1.73647     95.0308E-03
            2386               1         1.24434     778.600E-03        -1.24434     778.600E-03
            2387               1         1.18534     963.553E-03         1.18534    -963.553E-03
            2388               1         1.72224         4.02577        -1.72224        -4.02577
            2389               1     689.190E-03         1.63446     689.190E-03        -1.63446
            2390               1         2.18015     55.0972E-03        -2.18015     55.0972E-03
            2391               1         4.63007     527.124E-03         4.63007     527.124E-03
            2392               1     942.613E-03     314.276E-03    -942.613E-03    -314.276E-03
            2393               1     980.187E-03         1.15505    -980.187E-03         1.15505
            2394               1     476.628E-03         3.68304    -476.628E-03         3.68304
            2395               1         4.60698     679.545E-03        -4.60698    -679.545E-03
            2396               1         1.09180     758.945E-03        -1.09180     758.945E-03
            2397               1         3.16038     287.845E-03         3.16038     287.845E-03
            2398               1     370.397E-03         1.26805    -370.397E-03        -1.26805
            2399               1         1.08380     836.690E-03        -1.08380     836.690E-03
            2400               1         1.34536         1.99547        -1.34536        -1.99547
            2401               1         1.09098     60.9185E-03         1.09098    -60.9185E-03
            2402               1         1.46452     467.201E-03         1.46452     467.201E-03
            2403               1         1.25702     780.358E-03        -1.25702     780.358E-03
            2404               1         1.32085     832.893E-03         1.32085    -832.893E-03
            2405               1     674.685E-03     170.110E-03     674.685E-03    -170.110E-03
            2406               1     665.895E-03         1.21123     665.895E-03        -1.21123
            2407               1         4.23455     461.849E-03         4.23455     461.849E-03
            2408               1     829.802E-03         1.42348    -829.802E-03         1.42348
            2409               1         1.22937     774.484E-03        -1.22937     774.484E-03
            2410               1         4.90259     572.546E-03         4.90259     572.546E-03
            2411               1     707.835E-03     175.729E-03     707.835E-03    -175.729E-03
            2412               1         2.77073     18.9884E-03         2.77073     18.9884E-03
            2413               1         1.27275     862.991E-03         1.27275    -862.991E-03
            2414               1     45.4428E-03     225.477E-03    -45.4428E-03     225.477E-03
            2415               1         1.00845         1.10546        -1.00845         1.10546
            2416               1         1.34273     673.265E-03         1.34273    -673.265E-03
            2417               1         4.93350     580.314E-03         4.93350     580.314E-03
            2418               1     569.696E-03     290.866E-03    -569.696E-03    -290.866E-03
            2419               1     750.193E-03         1.23431     750.193E-03        -1.23431
            2420               1     734.058E-03         1.22549     734.058E-03        -1.22549
            2421               1         2.49010         1.58080        -2.49010        -1.58080
            2422               1         2.62029     214.416E-03         2.62029     214.416E-03
            2423               1     675.267E-03         1.21394     675.267E-03        -1.21394
            2424               1     325.583E-03         4.33719    -325.583E-03        -4.33719
            2425               1         1.40046         1.35308         1.40046        -1.35308
            2426               1         4.50939     254.663E-03         4.50939     254.663E-03
            2427               1         1.34491     844.407E-03         1.34491    -844.407E-03
            2428               1         3.31099     983.335E-03        -3.31099    -983.335E-03
            2429               1     839.311E-03         1.34463    -839.311E-03         1.34463
            2430               1         1.22355     943.756E-03         1.22355    -943.756E-03
            2431               1         4.79584     554.817E-03         4.79584     554.817E-03
            2432               1     577.924E-03     281.275E-03    -577.924E-03    -281.275E-03
            2433               1         2.57132         2.80782        -2.57132        -2.80782
            2434               1     760.668E-03         1.24351     760.668E-03        -1.24351
            2435               1     278.444E-03          2.4375    -278.444E-03         -2.4375
            2436               1         1.00077         3.84029         1.00077        -3.84029
            2437               1         3.45379     98.4369E-03         3.45379     98.4369E-03
            2438               1         1.26729     781.088E-03        -1.26729     781.088E-03
            2439               1     861.090E-03     813.072E-03    -861.090E-03    -813.072E-03
            2440               1         2.89594     249.596E-03         2.89594     249.596E-03
            2441               1     981.990E-03     192.110E-03     981.990E-03    -192.110E-03
            2442               1     101.015E-03         1.91924    -101.015E-03        -1.91924
            2443               1         4.26910     260.724E-03        -4.26910    -260.724E-03
            2444               1         4.05863     433.132E-03         4.05863     433.132E-03
            2445               1     314.570E-03         4.21806    -314.570E-03        -4.21806
            2446               1         1.49495     598.162E-03        -1.49495    -598.162E-03
            2447               1         3.94176     281.240E-03        -3.94176     281.240E-03
            2448               1     295.685E-03         2.10531    -295.685E-03        -2.10531
            2449               1     841.697E-03     129.932E-03     841.697E-03    -129.932E-03
            2450               1     85.1368E-03     237.776E-03    -85.1368E-03    -237.776E-03
            2451               1     749.076E-03     186.926E-03     749.076E-03    -186.926E-03
            2452               1         1.25103     599.234E-03        -1.25103     599.234E-03
            2453               1         2.09546         1.86523        -2.09546        -1.86523
            2454               1     540.733E-03     476.937E-03    -540.733E-03    -476.937E-03
            2455               1     822.769E-03     210.078E-03     822.769E-03    -210.078E-03
            2456               1     25.3949E-03         3.90595     25.3949E-03        -3.90595
            2457               1         2.33989     187.978E-03         2.33989     187.978E-03
            2458               1     210.078E-03     822.769E-03    -210.078E-03     822.769E-03
            2459               1     637.789E-03     126.167E-03     637.789E-03    -126.167E-03
            2460               1         1.96953     487.961E-03        -1.96953     487.961E-03
            2461               1         1.21401     836.299E-03         1.21401    -836.299E-03
            2462               1     438.097E-03     221.206E-03     438.097E-03    -221.206E-03
            2463               1     345.063E-03         1.26400     345.063E-03        -1.26400
            2464               1         4.42597         2.37808        -4.42597        -2.37808
            2465               1     583.452E-03     239.474E-03     583.452E-03     239.474E-03
            2466               1         1.16285         1.68397        -1.16285        -1.68397
            2467               1     765.070E-03     288.355E-03    -765.070E-03    -288.355E-03
            2468               1     546.546E-03     640.549E-03    -546.546E-03    -640.549E-03
            2469               1         4.95052     587.963E-03         4.95052     587.963E-03
            2470               1     747.373E-03     827.146E-03     747.373E-03    -827.146E-03
            2471               1     766.792E-03         1.25271     766.792E-03        -1.25271
            2472               1     7.19781E-03     49.7726E-03     7.19781E-03    -49.7726E-03
            2473               1     293.271E-03     183.570E-03    -293.271E-03    -183.570E-03
            2474               1         1.04823     971.574E-03        -1.04823     971.574E-03
            2475               1         1.31288     507.248E-03         1.31288    -507.248E-03
            2476               1         2.34124     183.403E-03         2.34124     183.403E-03
            2477               1         1.02981         1.03583        -1.02981         1.03583
            2478               1         1.30761     827.558E-03         1.30761    -827.558E-03
            2479               1         1.24082     768.282E-03        -1.24082     768.282E-03
            2480               1         1.28785     816.721E-03         1.28785    -816.721E-03
            2481               1     325.581E-03         3.29034    -325.581E-03        -3.29034
            2482               1         1.11249         4.11446         1.11249        -4.11446
            2483               1         1.32691     569.306E-03         1.32691    -569.306E-03
            2484               1     263.383E-03         4.43857     263.383E-03         4.43857
            2485               1     260.469E-03         2.74852    -260.469E-03        -2.74852
            2486               1     181.057E-03         4.28223     181.057E-03         4.28223
            2487               1         1.25845     927.329E-03         1.25845    -927.329E-03
            2488               1         1.75163     745.837E-03        -1.75163    -745.837E-03
            2489               1         1.28860     912.678E-03         1.28860    -912.678E-03
            2490               1         4.53703     614.520E-03        -4.53703    -614.520E-03
            2491               1         1.05721         1.07896        -1.05721         1.07896
            2492               1     662.687E-03         2.02131     662.687E-03        -2.02131
            2493               1         1.17630     410.568E-03         1.17630    -410.568E-03
            2494               1     959.223E-03         2.97965     959.223E-03        -2.97965
            2495               1         1.29322     796.127E-03         1.29322    -796.127E-03
            2496               1     820.370E-03         1.27179    -820.370E-03         1.27179
            2497               1         1.22364     201.104E-03         1.22364    -201.104E-03
            2498               1     186.146E-03         1.56973     186.146E-03        -1.56973
            2499               1     769.132E-03         1.26113     769.132E-03        -1.26113
            2500               1     421.038E-03     21.9965E-03     421.038E-03    -21.9965E-03
            2501               1     601.195E-03         1.30744    -601.195E-03        -1.30744
            2502               1     334.070E-03         4.21342    -334.070E-03        -4.21342
            2503               1         1.58911     277.386E-03         1.58911    -277.386E-03
            2504               1         1.45124     182.737E-03        -1.45124    -182.737E-03
            2505               1         1.24233     261.507E-03         1.24233    -261.507E-03
            2506               1     36.0801E-03     16.3592E-03     36.0801E-03     16.3592E-03
            2507               1         4.88670     620.711E-03         4.88670     620.711E-03
            2508               1         1.25655     748.809E-03        -1.25655     748.809E-03
            2509               1         4.40693     232.134E-03         4.40693     232.134E-03
            2510               1         2.01521         1.37456        -2.01521        -1.37456
            2511               1     32.9097E-03     242.109E-03     32.9097E-03    -242.109E-03
            2512               1         4.42765         2.35874        -4.42765        -2.35874
            2513               1     149.208E-03     653.751E-03    -149.208E-03     653.751E-03
            2514               1     117.736E-03     151.373E-03     117.736E-03     151.373E-03
            2515               1         1.24215     299.205E-03         1.24215    -299.205E-03
            2516               1     712.799E-03         1.18989     712.799E-03        -1.18989
            2517               1         1.23514     743.119E-03        -1.23514     743.119E-03
            2518               1         1.36733     802.804E-03         1.36733    -802.804E-03
            2519               1     418.491E-03     627.154E-03     418.491E-03     627.154E-03
            2520               1         1.49756     453.780E-03        -1.49756    -453.780E-03
            2521               1         1.12324         1.02472         1.12324        -1.02472
            2522               1         1.28431     785.331E-03        -1.28431     785.331E-03
            2523               1         1.05408     982.061E-03        -1.05408     982.061E-03
            2524               1         1.02469     15.1006E-03         1.02469     15.1006E-03
            2525               1         1.09694     66.0269E-03         1.09694    -66.0269E-03
            2526               1         1.08944     509.270E-03        -1.08944     509.270E-03
            2527               1         1.03322         1.04737        -1.03322         1.04737
            2528               1     167.496E-03         4.20719     167.496E-03         4.20719
            2529               1         1.67243     164.629E-03         1.67243     164.629E-03
            2530               1     755.937E-03     319.595E-03     755.937E-03     319.595E-03
            2531               1     31.7469E-03         1.20768     31.7469E-03         1.20768
            2532               1     781.608E-03         1.24353     781.608E-03        -1.24353
            2533               1         1.30785     512.691E-03         1.30785    -512.691E-03
            2534               1         1.31413     573.639E-03         1.31413    -573.639E-03
            2535               1     690.603E-03     198.381E-03     690.603E-03     198.381E-03
            2536               1         1.69616         1.06051        -1.69616         1.06051
            2537               1         4.11074     163.434E-03         4.11074     163.434E-03
            2538               1         1.17624     805.015E-03        -1.17624     805.015E-03
            2539               1     342.857E-03         1.40127     342.857E-03        -1.40127
            2540               1         1.13330         4.09324         1.13330        -4.09324
            2541               1     785.170E-03         1.20163     785.170E-03        -1.20163
            2542               1     912.340E-03         1.30761    -912.340E-03         1.30761
            2543               1         1.63030     513.086E-03        -1.63030    -513.086E-03
            2544               1     757.523E-03     358.545E-03     757.523E-03     358.545E-03
            2545               1         1.27633     951.251E-03         1.27633    -951.251E-03
            2546               1         1.30565     843.985E-03        -1.30565     843.985E-03
            2547               1     763.518E-03         1.26891     763.518E-03        -1.26891
            2548               1     335.320E-03         4.31373    -335.320E-03        -4.31373
            2549               1     849.634E-03         1.26997    -849.634E-03         1.26997
            2550               1     253.317E-03         4.41872     253.317E-03         4.41872
            2551               1         1.26753     371.020E-03         1.26753    -371.020E-03
            2552               1         1.33947     828.759E-03         1.33947    -828.759E-03
            2553               1     62.6953E-03     76.8364E-03    -62.6953E-03     76.8364E-03
            2554               1         2.30586         1.87015        -2.30586        -1.87015
            2555               1         4.50956     290.441E-03        -4.50956     290.441E-03
            2556               1         1.09962         1.05524        -1.09962         1.05524
            2557               1     767.948E-03         1.26722     767.948E-03        -1.26722
            2558               1         1.34264     834.586E-03         1.34264    -834.586E-03
            2559               1     400.144E-03     341.367E-03    -400.144E-03    -341.367E-03
            2560               1         1.20070     814.545E-03        -1.20070     814.545E-03
            2561               1         1.30047     820.671E-03        -1.30047     820.671E-03
            2562               1     687.585E-03         1.08951    -687.585E-03        -1.08951
            2563               1         1.35620     6.40929E-03        -1.35620     6.40929E-03
            2564               1     593.920E-03     569.853E-03    -593.920E-03    -569.853E-03
            2565               1     627.693E-03         1.21961     627.693E-03        -1.21961
            2566               1         1.29828     802.651E-03        -1.29828     802.651E-03
            2567               1         1.01767         1.15391        -1.01767         1.15391
            2568               1     188.945E-03     104.977E-03     188.945E-03    -104.977E-03
            2569               1     440.558E-03         2.36729    -440.558E-03        -2.36729
            2570               1     70.2183E-03         4.42024    -70.2183E-03        -4.42024
            2571               1     418.829E-03     683.236E-03     418.829E-03     683.236E-03
            2572               1     662.605E-03         1.88609    -662.605E-03        -1.88609
            2573               1     835.698E-03     196.838E-03     835.698E-03     196.838E-03
            2574               1         4.54893     203.433E-03         4.54893     203.433E-03
            2575               1     675.149E-03         1.08896     675.149E-03        -1.08896
            2576               1     287.765E-03         1.07769    -287.765E-03         1.07769
            2577               1     343.580E-03         1.68112    -343.580E-03        -1.68112
            2578               1         2.23336     325.333E-03        -2.23336     325.333E-03
            2579               1         1.16941     151.768E-03         1.16941     151.768E-03
            2580               1     650.691E-03     174.559E-03     650.691E-03    -174.559E-03
            2581               1         1.44109     483.493E-03         1.44109     483.493E-03
            2582               1     467.563E-03         1.12367    -467.563E-03         1.12367
            2583               1         2.43234     47.9369E-03        -2.43234    -47.9369E-03
            2584               1         3.89808     4.21941E-03        -3.89808    -4.21941E-03
            2585               1     216.633E-03         1.19668    -216.633E-03         1.19668
            2586               1         1.14873     139.517E-03         1.14873    -139.517E-03
            2587               1     896.812E-03     425.477E-03    -896.812E-03    -425.477E-03
            2588               1         3.11477         1.36865        -3.11477        -1.36865
            2589               1     182.289E-03         3.26490    -182.289E-03         3.26490
            2590               1     341.367E-03     400.144E-03    -341.367E-03    -400.144E-03
            2591               1     463.151E-03     62.7156E-03     463.151E-03    -62.7156E-03
            2592               1         2.47624         1.61686        -2.47624        -1.61686
            2593               1         2.63367         2.89148        -2.63367        -2.89148
            2594               1     900.257E-03         1.31338    -900.257E-03         1.31338
            2595               1     93.1023E-03     147.473E-03     93.1023E-03     147.473E-03
            2596               1         1.23764         3.19302         1.23764        -3.19302
            2597               1         1.25240     709.192E-03         1.25240    -709.192E-03
            2598               1     713.953E-03     127.050E-03     713.953E-03    -127.050E-03
            2599               1     116.204E-03         1.99298    -116.204E-03        -1.99298
            2600               1         1.65438     20.8060E-03         1.65438     20.8060E-03
            2601               1         2.97965     959.223E-03        -2.97965     959.223E-03
            2602               1         4.21342     334.070E-03        -4.21342    -334.070E-03
            2603               1     845.774E-03         1.09682    -845.774E-03         1.09682
            2604               1         4.45789     263.267E-03         4.45789     263.267E-03
            2605               1         1.93373     150.290E-03         1.93373    -150.290E-03
            2606               1     390.494E-03     134.362E-03    -390.494E-03    -134.362E-03
            2607               1     640.379E-03         1.34799    -640.379E-03        -1.34799
            2608               1         4.45550     195.972E-03         4.45550     195.972E-03
            2609               1     847.261E-03         3.27807     847.261E-03        -3.27807
            2610               1     87.8037E-03         1.18575    -87.8037E-03         1.18575
            2611               1     649.020E-03         1.19586     649.020E-03        -1.19586
            2612               1         1.23691     811.960E-03         1.23691    -811.960E-03
            2613               1         1.35990     863.531E-03        -1.35990     863.531E-03
            2614               1     158.649E-03         1.92113    -158.649E-03         1.92113
            2615               1         1.71085     369.540E-03        -1.71085    -369.540E-03
            2616               1         1.34028         2.01343        -1.34028        -2.01343
            2617               1     909.099E-03         1.17579    -909.099E-03         1.17579
            2618               1     45.0681E-03         2.74242     45.0681E-03        -2.74242
            2619               1     811.036E-03         3.32420    -811.036E-03         3.32420
            2620               1         4.23424     295.096E-03        -4.23424    -295.096E-03
            2621               1     103.467E-03         1.17578    -103.467E-03         1.17578
            2622               1     532.685E-03     123.402E-03     532.685E-03     123.402E-03
            2623               1         1.06398         1.11696         1.06398        -1.11696
            2624               1     153.701E-03         3.97477     153.701E-03        -3.97477
            2625               1     34.5233E-03         1.21359    -34.5233E-03         1.21359
            2626               1     119.661E-03         2.13139    -119.661E-03        -2.13139
            2627               1         3.92013     153.947E-03         3.92013    -153.947E-03
            2628               1         4.13073     107.266E-03         4.13073    -107.266E-03
            2629               1         1.32374     833.848E-03         1.32374    -833.848E-03
            2630               1         1.16795         1.00109         1.16795        -1.00109
            2631               1         1.05867         1.10919        -1.05867         1.10919
            2632               1     884.915E-03     833.967E-03    -884.915E-03    -833.967E-03
            2633               1         1.12656     970.323E-03        -1.12656     970.323E-03
            2634               1     902.812E-03     141.227E-03     902.812E-03    -141.227E-03
            2635               1         1.20176     26.7140E-03         1.20176     26.7140E-03
            2636               1     533.846E-03     12.5040E-03     533.846E-03    -12.5040E-03
            2637               1         1.87275         2.06460        -1.87275        -2.06460
            2638               1     422.790E-03     130.301E-03     422.790E-03     130.301E-03
            2639               1     277.331E-03         2.74286    -277.331E-03        -2.74286
            2640               1         1.00775         1.03089         1.00775        -1.03089
            2641               1         1.13607     991.448E-03        -1.13607     991.448E-03
            2642               1         1.34078     677.623E-03         1.34078    -677.623E-03
            2643               1     588.133E-03         1.22889     588.133E-03        -1.22889
            2644               1         1.20157         1.01230         1.20157        -1.01230
            2645               1     780.915E-03         3.27857    -780.915E-03         3.27857
            2646               1     827.645E-03         1.24366     827.645E-03        -1.24366
            2647               1         1.34799     640.379E-03        -1.34799    -640.379E-03
            2648               1     659.949E-03     504.709E-03     659.949E-03     504.709E-03
            2649               1         1.47454     909.350E-03        -1.47454     909.350E-03
            2650               1     846.520E-03         1.21867    -846.520E-03         1.21867
            2651               1         3.71666     156.264E-03         3.71666    -156.264E-03
            2652               1     460.547E-03         1.54685    -460.547E-03        -1.54685
            2653               1     580.707E-03     493.324E-03     580.707E-03     493.324E-03
            2654               1         1.28502     455.509E-03         1.28502    -455.509E-03
            2655               1     402.235E-03     754.289E-03    -402.235E-03    -754.289E-03
            2656               1         1.07322     286.859E-03         1.07322    -286.859E-03
            2657               1         1.30309     602.354E-03         1.30309    -602.354E-03
            2658               1     883.148E-03     88.2858E-03     883.148E-03    -88.2858E-03
            2659               1     4.73624E-03         3.95588     4.73624E-03        -3.95588
            2660               1         2.34236         1.92445        -2.34236        -1.92445
            2661               1         3.32991     966.546E-03        -3.32991    -966.546E-03
            2662               1     476.937E-03     540.733E-03    -476.937E-03    -540.733E-03
            2663               1     367.772E-03     231.666E-03     367.772E-03    -231.666E-03
            2664               1         3.72509     167.927E-03         3.72509    -167.927E-03
            2665               1     27.5976E-03     809.352E-03     27.5976E-03     809.352E-03
            2666               1     545.861E-03     44.6178E-03     545.861E-03     44.6178E-03
            2667               1     48.5543E-03         2.38362    -48.5543E-03        -2.38362
            2668               1         4.23292     341.603E-03        -4.23292    -341.603E-03
            2669               1     268.310E-03         3.95994     268.310E-03        -3.95994
            2670               1     132.225E-03         1.70448     132.225E-03        -1.70448
            2671               1     57.8465E-03     880.068E-03    -57.8465E-03     880.068E-03
            2672               1         2.02534     659.692E-03        -2.02534     659.692E-03
            2673               1         3.73087     378.389E-03        -3.73087     378.389E-03
            2674               1         1.38062         3.10936        -1.38062        -3.10936
            2675               1         1.16736     918.570E-03        -1.16736     918.570E-03
            2676               1         1.22673     845.145E-03         1.22673    -845.145E-03
            2677               1         4.48277     259.860E-03         4.48277     259.860E-03
            2678               1         1.31933     870.691E-03         1.31933    -870.691E-03
            2679               1         1.21515     833.637E-03         1.21515    -833.637E-03
            2680               1     450.875E-03         3.66982    -450.875E-03         3.66982
            2681               1     198.313E-03     2.91436E-03     198.313E-03    -2.91436E-03
            2682               1         1.23095     806.831E-03        -1.23095     806.831E-03
            2683               1         4.05568     154.371E-03         4.05568    -154.371E-03
            2684               1     829.380E-03         1.28132     829.380E-03        -1.28132
            2685               1         1.81874     746.940E-03        -1.81874    -746.940E-03
            2686               1     241.673E-03     306.078E-03    -241.673E-03    -306.078E-03
            2687               1     682.931E-03     517.075E-03     682.931E-03     517.075E-03
            2688               1     882.391E-03         1.37806     882.391E-03        -1.37806
            2689               1         1.17505     569.792E-03        -1.17505     569.792E-03
            2690               1         4.50954     199.151E-03         4.50954     199.151E-03
            2691               1         1.26252     589.753E-03        -1.26252    -589.753E-03
            2692               1     766.699E-03         1.18945     766.699E-03        -1.18945
            2693               1     290.664E-03         4.01583     290.664E-03        -4.01583
            2694               1     484.821E-03     87.0778E-03     484.821E-03    -87.0778E-03
            2695               1     194.238E-03     987.306E-03    -194.238E-03     987.306E-03
            2696               1     744.259E-03     375.977E-03    -744.259E-03    -375.977E-03
            2697               1     910.448E-03     132.963E-03     910.448E-03    -132.963E-03
            2698               1         1.39413     426.803E-03        -1.39413     426.803E-03
            2699               1     164.384E-03         3.83070    -164.384E-03         3.83070
            2700               1         1.74332     746.395E-03        -1.74332    -746.395E-03
            2701               1         1.26527     662.124E-03         1.26527    -662.124E-03
            2702               1         1.22880     773.132E-03        -1.22880     773.132E-03
            2703               1     28.2812E-03         4.02259     28.2812E-03        -4.02259
            2704               1         4.38060     327.494E-03        -4.38060    -327.494E-03
            2705               1     811.132E-03         1.24646     811.132E-03        -1.24646
            2706               1         1.21041     864.843E-03        -1.21041     864.843E-03
            2707               1         1.12017     816.793E-03         1.12017    -816.793E-03
            2708               1     614.091E-03     491.536E-03    -614.091E-03    -491.536E-03
            2709               1     311.442E-03     520.164E-03    -311.442E-03    -520.164E-03
            2710               1     187.767E-03         2.63090    -187.767E-03         2.63090
            2711               1          2.4375     278.444E-03         -2.4375    -278.444E-03
            2712               1     357.932E-03     631.456E-03    -357.932E-03    -631.456E-03
            2713               1     22.0500E-03         4.05129     22.0500E-03        -4.05129
            2714               1         1.18945     766.699E-03        -1.18945     766.699E-03
            2715               1     431.223E-03         1.91006     431.223E-03        -1.91006
            2716               1     596.153E-03         1.24391     596.153E-03        -1.24391
            2717               1     193.472E-03         1.21522    -193.472E-03         1.21522
            2718               1         4.31372     184.314E-03         4.31372     184.314E-03
            2719               1         1.23297     774.319E-03        -1.23297     774.319E-03
            2720               1     562.728E-03     477.199E-03    -562.728E-03    -477.199E-03
            2721               1         4.21995     339.078E-03        -4.21995    -339.078E-03
            2722               1         1.81212     742.939E-03        -1.81212    -742.939E-03
            2723               1         4.11986     160.680E-03         4.11986    -160.680E-03
            2724               1     354.406E-03         2.54140    -354.406E-03        -2.54140
            2725               1         3.45436     953.319E-03        -3.45436     953.319E-03
            2726               1     841.738E-03     355.476E-03     841.738E-03     355.476E-03
            2727               1     246.843E-03         1.51986     246.843E-03        -1.51986
            2728               1     750.359E-03     143.814E-03     750.359E-03     143.814E-03
            2729               1     240.309E-03     790.087E-03    -240.309E-03    -790.087E-03
            2730               1         1.28799     467.778E-03         1.28799    -467.778E-03
            2731               1         1.17455     692.041E-03        -1.17455     692.041E-03
            2732               1     903.677E-03         1.26610    -903.677E-03         1.26610
            2733               1     68.4389E-03         1.44025     68.4389E-03        -1.44025
            2734               1         1.08208     875.728E-03         1.08208    -875.728E-03
            2735               1         4.39458     219.130E-03         4.39458     219.130E-03
            2736               1         1.23332     788.953E-03         1.23332    -788.953E-03
            2737               1         1.30166     142.350E-03        -1.30166     142.350E-03
            2738               1     189.216E-03         2.15570    -189.216E-03         2.15570
            2739               1         1.93634     765.193E-03        -1.93634    -765.193E-03
            2740               1     953.589E-03         1.11129    -953.589E-03         1.11129
            2741               1     360.217E-03         1.33613     360.217E-03        -1.33613
            2742               1     72.7450E-03         3.91927     72.7450E-03        -3.91927
            2743               1         1.92113     158.649E-03         1.92113    -158.649E-03
            2744               1         1.68665     712.905E-03        -1.68665    -712.905E-03
            2745               1     921.681E-03     197.762E-03     921.681E-03     197.762E-03
            2746               1         2.15471     294.795E-03        -2.15471    -294.795E-03
            2747               1     746.940E-03         1.81874    -746.940E-03        -1.81874
            2748               1     733.416E-03     492.688E-03    -733.416E-03    -492.688E-03
            2749               1     175.399E-03         3.43853    -175.399E-03         3.43853
            2750               1     483.759E-03         3.31380     483.759E-03        -3.31380
            2751               1     4.29098E-03         2.06016     4.29098E-03        -2.06016
            2752               1     858.987E-03         1.25759     858.987E-03        -1.25759
            2753               1     375.182E-03         3.58811     375.182E-03        -3.58811
            2754               1     810.480E-03         1.25870     810.480E-03        -1.25870
            2755               1     391.998E-03     630.989E-03     391.998E-03     630.989E-03
            2756               1     925.887E-03     101.007E-03    -925.887E-03    -101.007E-03
            2757               1         3.24982     729.014E-03        -3.24982     729.014E-03
            2758               1     34.0410E-03     57.0653E-03     34.0410E-03     57.0653E-03
            2759               1     136.785E-03         4.02615    -136.785E-03         4.02615
            2760               1         1.28736     502.062E-03        -1.28736     502.062E-03
            2761               1     144.798E-03         4.00071    -144.798E-03         4.00071
            2762               1     989.535E-03         2.54071    -989.535E-03        -2.54071
            2763               1     886.535E-03         1.32133    -886.535E-03         1.32133
            2764               1     804.156E-03         1.26254     804.156E-03        -1.26254
            2765               1         1.30039     861.923E-03         1.30039    -861.923E-03
            2766               1     837.112E-03         1.30575     837.112E-03        -1.30575
            2767               1         1.28094     461.671E-03         1.28094    -461.671E-03
            2768               1     321.415E-03         1.20299    -321.415E-03         1.20299
            2769               1         1.15811     720.745E-03        -1.15811     720.745E-03
            2770               1         1.25353     317.255E-03         1.25353    -317.255E-03
            2771               1     560.474E-03     629.217E-03    -560.474E-03    -629.217E-03
            2772               1     95.2907E-03         4.04515    -95.2907E-03         4.04515
            2773               1         1.03004     94.5572E-03         1.03004    -94.5572E-03
            2774               1         1.68421     461.164E-03        -1.68421    -461.164E-03
            2775               1     414.066E-03         2.26601    -414.066E-03         2.26601
            2776               1         1.28350     538.101E-03         1.28350    -538.101E-03
            2777               1     831.418E-03         1.26293    -831.418E-03         1.26293
            2778               1         1.21867     846.520E-03         1.21867    -846.520E-03
            2779               1     588.695E-03     333.395E-03    -588.695E-03    -333.395E-03
            2780               1         1.52964     404.113E-03        -1.52964    -404.113E-03
            2781               1     745.299E-03     350.795E-03     745.299E-03     350.795E-03
            2782               1         1.35540     9.24581E-03        -1.35540     9.24581E-03
            2783               1         1.19442     840.828E-03        -1.19442     840.828E-03
            2784               1         2.67418     41.9474E-03        -2.67418     41.9474E-03
            2785               1         1.28265     865.281E-03         1.28265    -865.281E-03
            2786               1     179.133E-03         1.60302     179.133E-03        -1.60302
            2787               1         1.16419         1.09403        -1.16419        -1.09403
            2788               1         1.26084     716.419E-03         1.26084    -716.419E-03
            2789               1         4.58136     224.057E-03         4.58136     224.057E-03
            2790               1         1.48146     416.985E-03        -1.48146     416.985E-03
            2791               1     883.641E-03         1.32569    -883.641E-03         1.32569
            2792               1         1.09700         3.57085         1.09700        -3.57085
            2793               1         1.29735     928.258E-03         1.29735    -928.258E-03
            2794               1     12.7635E-03         1.99865     12.7635E-03        -1.99865
            2795               1         3.35140         1.29415        -3.35140         1.29415
            2796               1     300.693E-03     834.459E-03    -300.693E-03    -834.459E-03
            2797               1     552.175E-03         2.66176    -552.175E-03        -2.66176
            2798               1     541.311E-03         4.00478     541.311E-03        -4.00478
            2799               1         1.17801     740.309E-03        -1.17801     740.309E-03
            2800               1         2.82996     805.876E-03        -2.82996    -805.876E-03
            2801               1     763.185E-03         1.12982     763.185E-03        -1.12982
            2802               1         1.24353     781.608E-03        -1.24353     781.608E-03
            2803               1     117.248E-03         4.16261    -117.248E-03         4.16261
            2804               1         1.01158     834.894E-03        -1.01158    -834.894E-03
            2805               1     865.004E-03         1.28963    -865.004E-03         1.28963
            2806               1     599.467E-03         1.50172    -599.467E-03        -1.50172
            2807               1     644.997E-03         1.16284     644.997E-03        -1.16284
            2808               1         1.24307     822.517E-03        -1.24307     822.517E-03
            2809               1     366.337E-03     789.680E-03     366.337E-03     789.680E-03
            2810               1     13.5857E-03         3.99707     13.5857E-03        -3.99707
            2811               1     798.219E-03         1.21559     798.219E-03        -1.21559
            2812               1     123.572E-03         4.18108    -123.572E-03         4.18108
            2813               1         1.26568     860.209E-03         1.26568    -860.209E-03
            2814               1         1.17354     864.609E-03         1.17354    -864.609E-03
            2815               1         4.04483     22.1129E-03        -4.04483     22.1129E-03
            2816               1         3.88832     2.36952E-03        -3.88832    -2.36952E-03
            2817               1     47.9369E-03         2.43234    -47.9369E-03        -2.43234
            2818               1     485.103E-03         3.36542     485.103E-03        -3.36542
            2819               1         4.57165     209.375E-03         4.57165     209.375E-03
            2820               1         1.25049     965.889E-03         1.25049    -965.889E-03
            2821               1     344.701E-03         1.39777     344.701E-03        -1.39777
            2822               1         2.63245     203.882E-03         2.63245    -203.882E-03
            2823               1     525.384E-03         1.06713    -525.384E-03        -1.06713
            2824               1     962.568E-03         3.04474     962.568E-03        -3.04474
            2825               1     509.566E-03     649.077E-03     509.566E-03    -649.077E-03
            2826               1         1.36611     795.671E-03         1.36611    -795.671E-03
            2827               1         3.64733     118.955E-03         3.64733     118.955E-03
            2828               1     674.473E-03         1.22864     674.473E-03        -1.22864
            2829               1     443.110E-03         1.32122     443.110E-03        -1.32122
            2830               1     267.892E-03     10.3151E-03     267.892E-03    -10.3151E-03
            2831               1     548.044E-03         1.06263    -548.044E-03        -1.06263
            2832               1     378.471E-03         3.72603     378.471E-03        -3.72603
            2833               1         3.65057     481.702E-03         3.65057    -481.702E-03
            2834               1     525.756E-03         3.85208    -525.756E-03         3.85208
            2835               1         1.26465     345.407E-03        -1.26465     345.407E-03
            2836               1         1.05291     74.6948E-03         1.05291     74.6948E-03
            2837               1     734.657E-03     132.624E-03     734.657E-03    -132.624E-03
            2838               1     414.694E-03         1.50295    -414.694E-03        -1.50295
            2839               1         1.21173     855.820E-03         1.21173    -855.820E-03
            2840               1     139.425E-03         1.30588     139.425E-03        -1.30588
            2841               1     434.577E-03     632.313E-03     434.577E-03     632.313E-03
            2842               1     628.061E-03         1.19561     628.061E-03        -1.19561
            2843               1     105.459E-03         1.88553    -105.459E-03        -1.88553
            2844               1     849.230E-03         1.26360     849.230E-03        -1.26360
            2845               1         1.32495     680.253E-03        -1.32495     680.253E-03
            2846               1     376.750E-03     626.555E-03     376.750E-03     626.555E-03
            2847               1     206.141E-03         1.22805    -206.141E-03         1.22805
            2848               1     352.491E-03     100.118E-03     352.491E-03     100.118E-03
            2849               1         1.19742     469.107E-03         1.19742     469.107E-03
            2850               1     802.682E-03         1.40039    -802.682E-03        -1.40039
            2851               1     992.157E-03         1.21426    -992.157E-03         1.21426
            2852               1     758.672E-03     200.877E-03     758.672E-03    -200.877E-03
            2853               1     124.504E-03     6.47375E-03    -124.504E-03    -6.47375E-03
            2854               1     4.66096E-03     260.553E-03    -4.66096E-03     260.553E-03
            2855               1     866.879E-03     436.418E-03     866.879E-03     436.418E-03
            2856               1         1.60368     24.4521E-03        -1.60368    -24.4521E-03
            2857               1         1.20256     310.764E-03         1.20256    -310.764E-03
            2858               1     548.999E-03         1.23983     548.999E-03        -1.23983
            2859               1     615.647E-03     924.605E-03    -615.647E-03     924.605E-03
            2860               1     735.232E-03     505.860E-03     735.232E-03     505.860E-03
            2861               1     51.5901E-03         1.48639    -51.5901E-03        -1.48639
            2862               1         2.86067     198.750E-03         2.86067    -198.750E-03
            2863               1     807.548E-03         3.16555     807.548E-03        -3.16555
            2864               1     44.3909E-03         2.03019    -44.3909E-03        -2.03019
            2865               1     813.935E-03         3.61556     813.935E-03        -3.61556
            2866               1     746.297E-03         1.27308     746.297E-03        -1.27308
            2867               1         3.60336     397.231E-03        -3.60336     397.231E-03
            2868               1     868.533E-03         1.23674     868.533E-03        -1.23674
            2869               1         4.20336     136.462E-03         4.20336    -136.462E-03
            2870               1         3.23368     785.850E-03         3.23368    -785.850E-03
            2871               1     646.004E-03         2.81826     646.004E-03        -2.81826
            2872               1     727.638E-03         1.14170     727.638E-03        -1.14170
            2873               1     918.863E-03         1.24836     918.863E-03        -1.24836
            2874               1         4.04167     112.733E-03         4.04167    -112.733E-03
            2875               1     569.853E-03     593.920E-03    -569.853E-03    -593.920E-03
            2876               1         1.29635         1.04769         1.29635        -1.04769
            2877               1     218.962E-03     382.073E-03     218.962E-03    -382.073E-03
            2878               1     734.352E-03         1.33489    -734.352E-03        -1.33489
            2879               1         4.16261     117.248E-03         4.16261    -117.248E-03
            2880               1     100.451E-03     654.628E-03     100.451E-03     654.628E-03
            2881               1     388.946E-03         3.73615     388.946E-03        -3.73615
            2882               1     588.419E-03         1.23800    -588.419E-03         1.23800
            2883               1         1.37849     510.614E-03        -1.37849     510.614E-03
            2884               1     103.595E-03         1.20202    -103.595E-03         1.20202
            2885               1     427.089E-03         1.38733     427.089E-03        -1.38733
            2886               1     494.089E-03         1.12458     494.089E-03        -1.12458
            2887               1         1.06351     781.451E-03        -1.06351     781.451E-03
            2888               1     730.722E-03         1.21076    -730.722E-03         1.21076
            2889               1     523.001E-03         1.23531     523.001E-03        -1.23531
            2890               1         1.23674     868.533E-03        -1.23674     868.533E-03
            2891               1     81.4563E-03     17.5244E-03     81.4563E-03    -17.5244E-03
            2892               1         3.33387     449.373E-03         3.33387    -449.373E-03
            2893               1         2.74242     45.0681E-03        -2.74242     45.0681E-03
            2894               1         1.09340     762.938E-03        -1.09340     762.938E-03
            2895               1         1.47588     938.053E-03        -1.47588     938.053E-03
            2896               1     879.793E-03         3.45938    -879.793E-03         3.45938
            2897               1     725.547E-03         1.42476    -725.547E-03        -1.42476
            2898               1     451.306E-03     330.136E-03     451.306E-03    -330.136E-03
            2899               1     325.333E-03         2.23336     325.333E-03        -2.23336
            2900               1     265.929E-03     223.513E-03    -265.929E-03    -223.513E-03
            2901               1         4.06896     91.5586E-03         4.06896    -91.5586E-03
            2902               1     451.332E-03     442.758E-03     451.332E-03     442.758E-03
            2903               1         1.26932     890.736E-03         1.26932    -890.736E-03
            2904               1         1.11679     750.434E-03        -1.11679     750.434E-03
            2905               1         1.27680         3.26700         1.27680        -3.26700
            2906               1         1.76051     684.919E-03        -1.76051     684.919E-03
            2907               1         1.28244     981.856E-03         1.28244    -981.856E-03
            2908               1     562.079E-03         1.47171    -562.079E-03        -1.47171
            2909               1         3.73903     460.410E-03         3.73903    -460.410E-03
            2910               1     11.8262E-03         2.14593     11.8262E-03        -2.14593
            2911               1     463.753E-03         1.28377    -463.753E-03         1.28377
            2912               1     583.440E-03         1.20640    -583.440E-03        -1.20640
            2913               1     210.290E-06         1.58821    -210.290E-06        -1.58821
            2914               1         1.30093     913.811E-03         1.30093    -913.811E-03
            2915               1         4.09567     97.2776E-03         4.09567    -97.2776E-03
            2916               1         1.43041         1.45429        -1.43041        -1.45429
            2917               1         2.72597     255.049E-03        -2.72597    -255.049E-03
            2918               1     470.340E-03     303.535E-03    -470.340E-03    -303.535E-03
            2919               1     207.366E-03     756.526E-03     207.366E-03     756.526E-03
            2920               1     382.428E-03         1.19240     382.428E-03        -1.19240
            2921               1     567.766E-03     596.962E-03     567.766E-03     596.962E-03
            2922               1     736.903E-03         1.59257    -736.903E-03         1.59257
            2923               1     397.231E-03         3.60336     397.231E-03        -3.60336
            2924               1         2.16436     177.258E-03         2.16436    -177.258E-03
            2925               1         3.04218     426.699E-03         3.04218    -426.699E-03
            2926               1     495.425E-03     993.271E-03    -495.425E-03    -993.271E-03
            2927               1         1.30744     664.396E-03        -1.30744     664.396E-03
            2928               1     261.507E-03         1.24233    -261.507E-03         1.24233
            2929               1     426.699E-03         3.04218    -426.699E-03         3.04218
            2930               1     68.5463E-03         1.42982     68.5463E-03        -1.42982
            2931               1         2.15570     189.216E-03         2.15570    -189.216E-03
            2932               1     764.004E-03         3.42445     764.004E-03        -3.42445
            2933               1     939.672E-03         1.29837     939.672E-03        -1.29837
            2934               1     945.960E-03     221.946E-03     945.960E-03    -221.946E-03
            2935               1     308.259E-03         1.24608    -308.259E-03         1.24608
            2936               1     422.068E-03         2.87640    -422.068E-03         2.87640
            2937               1     465.305E-03         3.35680    -465.305E-03         3.35680
            2938               1         1.81965     828.654E-03        -1.81965    -828.654E-03
            2939               1     863.177E-03         1.24432     863.177E-03        -1.24432
            2940               1         1.29755     879.292E-03        -1.29755     879.292E-03
            2941               1         1.79728     992.402E-03        -1.79728    -992.402E-03
            2942               1     864.380E-03         1.01979    -864.380E-03         1.01979
            2943               1     955.463E-03     48.7199E-03     955.463E-03    -48.7199E-03
            2944               1     754.289E-03     402.235E-03    -754.289E-03    -402.235E-03
            2945               1     895.259E-03         1.23405    -895.259E-03         1.23405
            2946               1     100.148E-03     251.012E-03     100.148E-03     251.012E-03
            2947               1     826.020E-03         1.17512     826.020E-03        -1.17512
            2948               1     323.353E-03     90.2561E-03     323.353E-03    -90.2561E-03
            2949               1         4.03838     125.073E-03         4.03838    -125.073E-03
            2950               1         1.17408     821.044E-03         1.17408    -821.044E-03
            2951               1     587.055E-03         1.27063    -587.055E-03        -1.27063
            2952               1     846.021E-03         1.23022     846.021E-03        -1.23022
            2953               1     310.261E-03         1.19938    -310.261E-03         1.19938
            2954               1         1.21790     955.945E-03        -1.21790     955.945E-03
            2955               1     373.825E-03     533.684E-03    -373.825E-03    -533.684E-03
            2956               1         1.26688     967.544E-03         1.26688    -967.544E-03
            2957               1     898.161E-03         1.23720    -898.161E-03         1.23720
            2958               1         2.21526     785.479E-03        -2.21526    -785.479E-03
            2959               1         1.21829     854.989E-03        -1.21829     854.989E-03
            2960               1         1.14976     778.289E-03        -1.14976     778.289E-03
            2961               1     831.312E-03         1.23985     831.312E-03        -1.23985
            2962               1         3.33086     796.862E-03        -3.33086     796.862E-03
            2963               1     942.922E-03     61.8224E-03     942.922E-03    -61.8224E-03
            2964               1         1.37398     882.720E-03        -1.37398     882.720E-03
            2965               1     870.746E-03     32.0484E-03     870.746E-03     32.0484E-03
            2966               1     216.411E-03         1.22648    -216.411E-03         1.22648
            2967               1         1.23381     815.726E-03        -1.23381     815.726E-03
            2968               1         3.99075     151.778E-03         3.99075    -151.778E-03
            2969               1         1.28966     895.709E-03         1.28966    -895.709E-03
            2970               1     156.754E-03         1.70438     156.754E-03        -1.70438
            2971               1         1.48408     656.853E-03        -1.48408    -656.853E-03
            2972               1         1.60205     241.646E-03        -1.60205    -241.646E-03
            2973               1         1.63331         1.82748        -1.63331        -1.82748
            2974               1         1.21410     112.542E-03         1.21410    -112.542E-03
            2975               1     442.420E-03         2.88824    -442.420E-03         2.88824
            2976               1         3.79682     482.778E-03         3.79682    -482.778E-03
            2977               1         1.22305     811.532E-03        -1.22305     811.532E-03
            2978               1     690.170E-03         1.18491    -690.170E-03         1.18491
            2979               1     196.195E-03         1.70598    -196.195E-03        -1.70598
            2980               1     736.378E-03         2.99278    -736.378E-03         2.99278
            2981               1         1.56833     116.085E-03        -1.56833    -116.085E-03
            2982               1         4.17203     164.867E-03         4.17203    -164.867E-03
            2983               1     567.258E-03         3.45712     567.258E-03        -3.45712
            2984               1     909.350E-03         1.47454     909.350E-03        -1.47454
            2985               1         1.11522         1.04872         1.11522        -1.04872
            2986               1     2.34956E-03         1.16158    -2.34956E-03         1.16158
            2987               1     818.749E-03     935.270E-03    -818.749E-03     935.270E-03
            2988               1         3.57085         1.09700        -3.57085         1.09700
            2989               1         3.83070     164.384E-03         3.83070    -164.384E-03
            2990               1         1.05422     525.512E-03        -1.05422    -525.512E-03
            2991               1     664.396E-03         1.30744     664.396E-03        -1.30744
            2992               1         1.11529     187.631E-03         1.11529    -187.631E-03
            2993               1     851.515E-03     128.111E-03     851.515E-03    -128.111E-03
            2994               1     408.916E-03         1.26066    -408.916E-03         1.26066
            2995               1     527.187E-03         1.66679    -527.187E-03        -1.66679
            2996               1         2.81826     646.004E-03        -2.81826     646.004E-03
            2997               1     682.395E-03         3.18063     682.395E-03        -3.18063
            2998               1         1.01074     178.320E-03         1.01074     178.320E-03
            2999               1         1.40963     167.782E-03        -1.40963     167.782E-03
            3000               1     769.497E-03     464.286E-03     769.497E-03     464.286E-03
            3001               1     900.332E-03         1.34443     900.332E-03        -1.34443
            3002               1     966.022E-03         1.91734     966.022E-03        -1.91734
            3003               1         1.27066     659.479E-03         1.27066    -659.479E-03
            3004               1         3.83117     156.148E-03         3.83117    -156.148E-03
            3005               1         1.11084     599.193E-03        -1.11084     599.193E-03
            3006               1         1.38647     740.044E-03        -1.38647    -740.044E-03
            3007               1     859.449E-03         1.26113     859.449E-03        -1.26113
            3008               1         1.63183     119.242E-03         1.63183    -119.242E-03
            3009               1     771.196E-03     356.587E-03     771.196E-03     356.587E-03
            3010               1         3.89564     12.2093E-03        -3.89564     12.2093E-03
            3011               1         1.40905     193.518E-03        -1.40905     193.518E-03
            3012               1     929.765E-03     26.4159E-03     929.765E-03     26.4159E-03
            3013               1     786.034E-03         3.28600    -786.034E-03         3.28600
            3014               1     502.100E-03         3.62780     502.100E-03        -3.62780
            3015               1     141.929E-03     199.494E-03     141.929E-03    -199.494E-03
            3016               1         1.23064     893.835E-03         1.23064    -893.835E-03
            3017               1     940.108E-03         1.28363    -940.108E-03         1.28363
            3018               1         1.26644     772.808E-03         1.26644    -772.808E-03
            3019               1         1.28356     577.065E-03         1.28356    -577.065E-03
            3020               1     428.405E-03         1.68540    -428.405E-03        -1.68540
            3021               1     395.070E-03     189.486E-03     395.070E-03     189.486E-03
            3022               1         1.05092         2.77557        -1.05092         2.77557
            3023               1     787.221E-03         3.27287     787.221E-03        -3.27287
            3024               1     135.476E-03         1.88839     135.476E-03        -1.88839
            3025               1         1.11193     828.375E-03        -1.11193     828.375E-03
            3026               1     352.115E-03     316.365E-03     352.115E-03     316.365E-03
            3027               1         1.35423     594.669E-03        -1.35423     594.669E-03
            3028               1     453.950E-03         3.21629    -453.950E-03         3.21629
            3029               1     862.420E-03         1.26394     862.420E-03        -1.26394
            3030               1     355.887E-03         3.64105     355.887E-03        -3.64105
            3031               1     844.426E-03         1.19147    -844.426E-03         1.19147
            3032               1         1.19147     844.426E-03         1.19147    -844.426E-03
            3033               1         1.22118     941.742E-03        -1.22118     941.742E-03
            3034               1     482.878E-03         3.60194    -482.878E-03         3.60194
            3035               1     339.992E-03     25.4081E-03     339.992E-03    -25.4081E-03
            3036               1     762.508E-03         1.10289     762.508E-03        -1.10289
            3037               1     493.324E-03     580.707E-03     493.324E-03     580.707E-03
            3038               1     704.947E-03         1.25400    -704.947E-03         1.25400
            3039               1     880.413E-03         1.16577    -880.413E-03         1.16577
            3040               1     437.228E-03         3.67270    -437.228E-03         3.67270
            3041               1         3.28077     809.288E-03         3.28077    -809.288E-03
            3042               1         1.22648     216.411E-03         1.22648    -216.411E-03
            3043               1         1.22915     659.182E-03         1.22915    -659.182E-03
            3044               1         1.51419     449.928E-03         1.51419    -449.928E-03
            3045               1     874.287E-03         2.10120    -874.287E-03        -2.10120
            3046               1         4.04942     23.5077E-03        -4.04942     23.5077E-03
            3047               1         2.15135     124.860E-03        -2.15135     124.860E-03
            3048               1     453.621E-03         1.64849     453.621E-03        -1.64849
            3049               1         3.36715     732.383E-03        -3.36715     732.383E-03
            3050               1     933.465E-03         1.29156    -933.465E-03         1.29156
            3051               1     496.071E-03         3.82938    -496.071E-03         3.82938
            3052               1     842.528E-03         1.19523     842.528E-03        -1.19523
            3053               1     212.092E-03     121.801E-03    -212.092E-03     121.801E-03
            3054               1     443.443E-03     893.488E-03    -443.443E-03    -893.488E-03
            3055               1         4.00071     144.798E-03         4.00071    -144.798E-03
            3056               1         1.18470     792.641E-03         1.18470    -792.641E-03
            3057               1     300.929E-03         1.45732     300.929E-03        -1.45732
            3058               1         1.58408     867.139E-03        -1.58408     867.139E-03
            3059               1     902.190E-03         1.24688    -902.190E-03         1.24688
            3060               1     533.698E-03         3.85836    -533.698E-03         3.85836
            3061               1         3.99581     35.5460E-03        -3.99581     35.5460E-03
            3062               1         1.40045     917.627E-03        -1.40045     917.627E-03
            3063               1     980.109E-03         1.27660    -980.109E-03         1.27660
            3064               1     63.3070E-03         1.62581     63.3070E-03        -1.62581
            3065               1     331.918E-03         1.50730     331.918E-03        -1.50730
            3066               1     972.016E-03     791.171E-03    -972.016E-03     791.171E-03
            3067               1     29.6141E-03     93.2432E-03    -29.6141E-03     93.2432E-03
            3068               1         1.14878     847.439E-03        -1.14878     847.439E-03
            3069               1     933.095E-03         1.29942    -933.095E-03         1.29942
            3070               1         1.21737     887.434E-03         1.21737    -887.434E-03
            3071               1         1.58526     390.865E-03        -1.58526     390.865E-03
            3072               1     649.575E-03         1.05471     649.575E-03        -1.05471
            3073               1     885.332E-03         1.11670     885.332E-03        -1.11670
            3074               1     534.625E-03     445.863E-03     534.625E-03     445.863E-03
            3075               1     978.939E-03     441.848E-03    -978.939E-03    -441.848E-03
            3076               1     880.517E-03         1.23018     880.517E-03        -1.23018
            3077               1     394.973E-03         2.26959    -394.973E-03         2.26959
            3078               1         1.99865     12.7635E-03        -1.99865     12.7635E-03
            3079               1     556.789E-03     99.4825E-03     556.789E-03     99.4825E-03
            3080               1         1.27718         1.46353        -1.27718        -1.46353
            3081               1         1.14872         1.01022        -1.14872         1.01022
            3082               1     714.048E-03     198.992E-03     714.048E-03    -198.992E-03
            3083               1     461.857E-03         1.66970    -461.857E-03        -1.66970
            3084               1         1.22909     84.4157E-03         1.22909    -84.4157E-03
            3085               1         2.58570     411.913E-03        -2.58570     411.913E-03
            3086               1     94.7601E-03         1.09766     94.7601E-03         1.09766
            3087               1     368.642E-03         2.05326    -368.642E-03         2.05326
            3088               1         1.17025     873.913E-03        -1.17025    -873.913E-03
            3089               1     440.531E-03         1.69371    -440.531E-03        -1.69371
            3090               1     421.543E-03         1.44533    -421.543E-03        -1.44533
            3091               1         1.78787         1.56323        -1.78787        -1.56323
            3092               1     251.723E-03     659.128E-03    -251.723E-03    -659.128E-03
            3093               1     191.018E-03     737.908E-03     191.018E-03     737.908E-03
            3094               1         1.96194         1.29022        -1.96194        -1.29022
            3095               1         1.50854     549.181E-03        -1.50854     549.181E-03
            3096               1         1.20198     382.832E-03         1.20198    -382.832E-03
            3097               1         1.23398     220.412E-03         1.23398    -220.412E-03
            3098               1         3.66380     438.302E-03         3.66380    -438.302E-03
            3099               1     74.2855E-03     165.203E-03     74.2855E-03    -165.203E-03
            3100               1         1.22766         1.16431        -1.22766        -1.16431
            3101               1         1.24534     375.601E-03         1.24534    -375.601E-03
            3102               1         1.44371     503.057E-03        -1.44371     503.057E-03
            3103               1     352.702E-03         2.13286     352.702E-03        -2.13286
            3104               1         1.05364     994.254E-03         1.05364    -994.254E-03
            3105               1     341.486E-03         1.26948    -341.486E-03         1.26948
            3106               1     96.7173E-03         1.72850     96.7173E-03        -1.72850
            3107               1     611.044E-03     871.404E-03    -611.044E-03    -871.404E-03
            3108               1         2.34290     661.371E-03         2.34290    -661.371E-03
            3109               1     774.624E-03         1.06271     774.624E-03        -1.06271
            3110               1     329.350E-03     542.722E-03     329.350E-03     542.722E-03
            3111               1         1.21628     579.605E-03        -1.21628    -579.605E-03
            3112               1     124.238E-03     119.459E-03    -124.238E-03    -119.459E-03
            3113               1         1.16268         2.19489         1.16268        -2.19489
            3114               1     147.181E-03         1.23368    -147.181E-03         1.23368
            3115               1         1.46689         3.22069         1.46689        -3.22069
            3116               1     969.791E-03     746.158E-03    -969.791E-03    -746.158E-03
            3117               1     913.770E-03         3.51523    -913.770E-03         3.51523
            3118               1     763.534E-03         1.95373    -763.534E-03        -1.95373
            3119               1         1.34368         1.40262        -1.34368        -1.40262
            3120               1         3.21672     788.062E-03         3.21672    -788.062E-03
            3121               1     653.216E-03         1.44362    -653.216E-03        -1.44362
            3122               1     496.919E-03     969.957E-03    -496.919E-03    -969.957E-03
            3123               1     784.349E-03         3.45366     784.349E-03        -3.45366
            3124               1         1.06832     800.744E-03        -1.06832     800.744E-03
            3125               1     819.572E-03     894.566E-03     819.572E-03    -894.566E-03
            3126               1     773.250E-03         1.02421     773.250E-03        -1.02421
            3127               1         1.31446         3.03615        -1.31446         3.03615
            3128               1     879.609E-03         1.17008     879.609E-03        -1.17008
            3129               1     88.4035E-03         1.12125    -88.4035E-03         1.12125
            3130               1     320.308E-03     915.734E-03     320.308E-03     915.734E-03
            3131               1         1.09118     914.469E-03        -1.09118     914.469E-03
            3132               1     874.070E-03     183.909E-03     874.070E-03    -183.909E-03
            3133               1     922.717E-03     694.113E-03    -922.717E-03    -694.113E-03
            3134               1         1.25812     943.622E-03         1.25812    -943.622E-03
            3135               1         1.10610     665.141E-03        -1.10610     665.141E-03
            3136               1     924.036E-03         1.24453     924.036E-03        -1.24453
            3137               1     614.937E-03         1.49252     614.937E-03        -1.49252
            3138               1     137.045E-03         1.21728    -137.045E-03         1.21728
            3139               1         1.18125     832.146E-03        -1.18125     832.146E-03
            3140               1     686.592E-03         3.23566     686.592E-03        -3.23566
            3141               1     420.042E-03         1.87405     420.042E-03        -1.87405
            3142               1         1.03712         1.17472        -1.03712        -1.17472
            3143               1     115.645E-03         1.54786    -115.645E-03        -1.54786
            3144               1     588.567E-03     469.430E-03     588.567E-03     469.430E-03
            3145               1         3.67270     437.228E-03         3.67270    -437.228E-03
            3146               1         1.51965     14.1618E-03        -1.51965    -14.1618E-03
            3147               1     648.593E-03     505.265E-03     648.593E-03     505.265E-03
            3148               1         1.08992         1.06509        -1.08992         1.06509
            3149               1         1.61417     186.482E-03        -1.61417    -186.482E-03
            3150               1     635.495E-03         2.13480    -635.495E-03         2.13480
            3151               1         2.01031     867.932E-03         2.01031    -867.932E-03
            3152               1         1.45930     490.202E-03        -1.45930     490.202E-03
            3153               1     500.614E-03     595.200E-03    -500.614E-03    -595.200E-03
            3154               1     767.772E-03     857.171E-03    -767.772E-03    -857.171E-03
            3155               1     200.279E-03     394.215E-03     200.279E-03     394.215E-03
            3156               1     608.976E-03         2.14079    -608.976E-03         2.14079
            3157               1         1.05581     850.265E-03         1.05581    -850.265E-03
            3158               1     417.273E-03         1.31190     417.273E-03        -1.31190
            3159               1     910.505E-03         1.16078    -910.505E-03         1.16078
            3160               1         1.09403         1.16419        -1.09403        -1.16419
            3161               1         1.07053     830.485E-03        -1.07053     830.485E-03
            3162               1     947.441E-03         3.27482     947.441E-03        -3.27482
            3163               1     479.816E-03         1.24659    -479.816E-03         1.24659
            3164               1     867.959E-03         1.12245    -867.959E-03        -1.12245
            3165               1         3.72603     378.471E-03        -3.72603     378.471E-03
            3166               1     584.868E-03         1.09494     584.868E-03        -1.09494
            3167               1         2.05326     368.642E-03         2.05326    -368.642E-03
            3168               1     10.5218E-03         1.53314    -10.5218E-03        -1.53314
            3169               1     770.019E-03         3.13090    -770.019E-03         3.13090
            3170               1         2.32806     249.004E-03        -2.32806     249.004E-03
            3171               1     793.435E-03         1.02765    -793.435E-03         1.02765
            3172               1     526.608E-03         1.01741     526.608E-03        -1.01741
            3173               1     802.135E-03         3.44485     802.135E-03        -3.44485
            3174               1     73.4140E-03         1.16901     73.4140E-03         1.16901
            3175               1     488.466E-03     290.652E-03     488.466E-03     290.652E-03
            3176               1         1.09682     845.774E-03         1.09682    -845.774E-03
            3177               1         2.52919     679.083E-03         2.52919    -679.083E-03
            3178               1         1.49252     614.937E-03        -1.49252     614.937E-03
            3179               1     684.177E-03         1.33183    -684.177E-03         1.33183
            3180               1     672.585E-03     361.877E-03    -672.585E-03    -361.877E-03
            3181               1         1.64849     453.621E-03        -1.64849     453.621E-03
            3182               1         1.28352         2.73424         1.28352        -2.73424
            3183               1     16.6095E-03     460.884E-03    -16.6095E-03    -460.884E-03
            3184               1     303.124E-03         1.10596     303.124E-03        -1.10596
            3185               1     684.232E-03         2.81668    -684.232E-03         2.81668
            3186               1     756.565E-03     861.227E-03     756.565E-03    -861.227E-03
            3187               1         1.11367         1.07839        -1.11367         1.07839
            3188               1         1.21426     992.157E-03         1.21426    -992.157E-03
            3189               1     725.221E-03     142.657E-03     725.221E-03    -142.657E-03
            3190               1     243.978E-03         1.58895     243.978E-03        -1.58895
            3191               1     421.498E-03     363.308E-03    -421.498E-03    -363.308E-03
            3192               1         1.11625     840.052E-03        -1.11625     840.052E-03
            3193               1     565.906E-03     586.052E-03     565.906E-03     586.052E-03
            3194               1         1.11095     812.399E-03        -1.11095     812.399E-03
            3195               1         1.16303     875.197E-03        -1.16303     875.197E-03
            3196               1     850.069E-03     15.2169E-03     850.069E-03     15.2169E-03
            3197               1     330.956E-03         1.09113     330.956E-03        -1.09113
            3198               1     950.159E-03     259.251E-03     950.159E-03     259.251E-03
            3199               1         1.01155     888.002E-03         1.01155    -888.002E-03
            3200               1     866.499E-03         1.06955     866.499E-03        -1.06955
            3201               1         1.24453     924.036E-03        -1.24453     924.036E-03
            3202               1     887.648E-03     981.880E-03    -887.648E-03     981.880E-03
            3203               1         2.19655     568.259E-03        -2.19655    -568.259E-03
            3204               1     569.332E-03         1.37559     569.332E-03        -1.37559
            3205               1     632.363E-03     904.454E-03    -632.363E-03    -904.454E-03
            3206               1     882.709E-03     984.004E-03    -882.709E-03     984.004E-03
            3207               1     330.904E-03         2.55795    -330.904E-03        -2.55795
            3208               1         1.26924         2.64088         1.26924        -2.64088
            3209               1     810.901E-03         2.45480     810.901E-03        -2.45480
            3210               1         1.26086     982.174E-03         1.26086    -982.174E-03
            3211               1         1.08544     966.855E-03        -1.08544     966.855E-03
            3212               1     707.196E-03         1.66268    -707.196E-03        -1.66268
            3213               1     7.59510E-03         1.22667    -7.59510E-03        -1.22667
            3214               1     788.335E-03         2.23422    -788.335E-03        -2.23422
            3215               1         1.19745     906.580E-03        -1.19745     906.580E-03
            3216               1     838.440E-03     942.179E-03    -838.440E-03     942.179E-03
            3217               1         1.13374     842.106E-03         1.13374    -842.106E-03
            3218               1         1.76572     568.771E-03        -1.76572    -568.771E-03
            3219               1     939.018E-03         1.18511    -939.018E-03         1.18511
            3220               1     589.795E-03         1.22987    -589.795E-03         1.22987
            3221               1     568.720E-03         1.54632    -568.720E-03        -1.54632
            3222               1         1.15413     795.042E-03        -1.15413     795.042E-03
            3223               1     679.373E-03         2.46430    -679.373E-03        -2.46430
            3224               1         1.76233     696.588E-03        -1.76233    -696.588E-03
            3225               1     762.967E-03     524.005E-03     762.967E-03     524.005E-03
            3226               1         1.20682     911.106E-03         1.20682    -911.106E-03
            3227               1         1.00057         1.11238        -1.00057         1.11238
            3228               1         1.18608     829.531E-03        -1.18608     829.531E-03
            3229               1         3.56551     356.089E-03        -3.56551     356.089E-03
            3230               1         1.13877     738.297E-03        -1.13877     738.297E-03
            3231               1         1.47648         1.25361        -1.47648        -1.25361
            3232               1         1.12178     7.14374E-03         1.12178     7.14374E-03
            3233               1     894.253E-03         1.06439    -894.253E-03         1.06439
            3234               1     76.1249E-03         1.21097    -76.1249E-03         1.21097
            3235               1         1.83284     336.458E-03         1.83284    -336.458E-03
            3236               1     769.038E-03     983.165E-03     769.038E-03    -983.165E-03
            3237               1         1.20654     848.653E-03        -1.20654     848.653E-03
            3238               1     915.900E-03         1.16802    -915.900E-03         1.16802
            3239               1     518.297E-03         1.26745    -518.297E-03        -1.26745
            3240               1     922.527E-03         1.16391    -922.527E-03         1.16391
            3241               1         1.16203         2.79760         1.16203        -2.79760
            3242               1     894.949E-03     944.478E-03     894.949E-03    -944.478E-03
            3243               1     893.104E-03         1.12068    -893.104E-03         1.12068
            3244               1         3.60312     477.039E-03         3.60312    -477.039E-03
            3245               1         1.14869     895.673E-03        -1.14869     895.673E-03
            3246               1     317.717E-03         1.44420     317.717E-03        -1.44420
            3247               1         1.47868     817.339E-03        -1.47868     817.339E-03
            3248               1         1.09742     903.175E-03        -1.09742     903.175E-03
            3249               1     949.592E-03         2.07214     949.592E-03        -2.07214
            3250               1         1.31290         1.00315         1.31290        -1.00315
            3251               1     871.404E-03     611.044E-03    -871.404E-03    -611.044E-03
            3252               1         3.45366     784.349E-03        -3.45366     784.349E-03
            3253               1     361.877E-03     672.585E-03    -361.877E-03    -672.585E-03
            3254               1         1.18315     374.734E-03         1.18315    -374.734E-03
            3255               1     791.261E-03     982.982E-03     791.261E-03    -982.982E-03
            3256               1         2.54818         1.03879        -2.54818         1.03879
            3257               1     856.340E-03         1.00949    -856.340E-03         1.00949
            3258               1     553.696E-03         1.15597    -553.696E-03        -1.15597
            3259               1         2.39365     130.288E-03        -2.39365     130.288E-03
            3260               1     769.606E-03         1.11808    -769.606E-03         1.11808
            3261               1     955.945E-03         1.21790     955.945E-03        -1.21790
            3262               1     265.700E-03         1.91576     265.700E-03        -1.91576
            3263               1         1.04409     3.06322E-03         1.04409    -3.06322E-03
            3264               1     868.110E-03     999.097E-03    -868.110E-03     999.097E-03
            3265               1     814.100E-03     993.438E-03    -814.100E-03     993.438E-03
            3266               1     591.952E-03         1.92093    -591.952E-03         1.92093
            3267               1     157.899E-03         1.61451     157.899E-03        -1.61451
            3268               1     963.462E-03     843.023E-03    -963.462E-03     843.023E-03
            3269               1         3.45918     465.612E-03         3.45918    -465.612E-03
            3270               1     665.229E-03         1.34041     665.229E-03        -1.34041
            3271               1     624.822E-03         1.73295    -624.822E-03        -1.73295
            3272               1     788.062E-03         3.21672    -788.062E-03         3.21672
            3273               1     921.961E-03         3.51779    -921.961E-03         3.51779
            3274               1     912.523E-03         3.50001    -912.523E-03         3.50001
            3275               1     300.354E-03         1.42144     300.354E-03        -1.42144
            3276               1         1.63446     689.190E-03        -1.63446     689.190E-03
            3277               1     875.197E-03         1.16303     875.197E-03        -1.16303
            3278               1         1.13256     863.822E-03        -1.13256     863.822E-03
            3279               1         2.42293     58.0513E-03        -2.42293     58.0513E-03
            3280               1         1.04943         2.61654         1.04943        -2.61654
            3281               1     664.627E-03     287.921E-03     664.627E-03     287.921E-03
            3282               1         1.28696     913.950E-03         1.28696    -913.950E-03
            3283               1         3.60435     429.118E-03        -3.60435     429.118E-03
            3284               1         1.57488     995.207E-03        -1.57488     995.207E-03
            3285               1         1.20602     967.760E-03         1.20602    -967.760E-03
            3286               1         3.07416         1.19838        -3.07416         1.19838
            3287               1         1.20344     930.252E-03        -1.20344     930.252E-03
            3288               1         1.11195     512.936E-03        -1.11195    -512.936E-03
            3289               1         1.67174     911.468E-03        -1.67174     911.468E-03
            3290               1     689.766E-03     828.713E-03     689.766E-03    -828.713E-03
            3291               1         1.01276     830.154E-03        -1.01276     830.154E-03
            3292               1     921.860E-03         1.27913     921.860E-03        -1.27913
            3293               1     679.887E-03         1.20544     679.887E-03        -1.20544
            3294               1         1.81150     784.722E-03         1.81150    -784.722E-03
            3295               1     857.171E-03     767.772E-03    -857.171E-03    -767.772E-03
            3296               1     430.761E-03         1.61874    -430.761E-03        -1.61874
            3297               1     554.637E-03         1.80914     554.637E-03        -1.80914
            3298               1     90.2561E-03     323.353E-03    -90.2561E-03     323.353E-03
            3299               1         1.86212         1.03099        -1.86212        -1.03099
            3300               1     726.913E-03         1.15574    -726.913E-03         1.15574
            3301               1     902.802E-03         1.28993     902.802E-03        -1.28993
            3302               1     287.921E-03     664.627E-03     287.921E-03     664.627E-03
            3303               1     669.522E-03         1.20205    -669.522E-03         1.20205
            3304               1     812.825E-03         1.33998     812.825E-03        -1.33998
            3305               1     537.326E-03     492.642E-03     537.326E-03     492.642E-03
            3306               1     601.862E-03         2.25719     601.862E-03        -2.25719
            3307               1         2.37310     253.086E-03        -2.37310     253.086E-03
            3308               1         1.24352     964.098E-03         1.24352    -964.098E-03
            3309               1     160.163E-03     390.304E-03     160.163E-03     390.304E-03
            3310               1     451.702E-03     317.944E-03    -451.702E-03    -317.944E-03
            3311               1     904.939E-03         1.16077    -904.939E-03         1.16077
            3312               1         1.41278         1.07142        -1.41278        -1.07142
            3313               1         3.73628     379.932E-03        -3.73628     379.932E-03
            3314               1     606.509E-03     309.754E-03     606.509E-03     309.754E-03
            3315               1     907.650E-03         1.15610    -907.650E-03         1.15610
            3316               1     877.773E-03         3.45938    -877.773E-03         3.45938
            3317               1         1.91522         2.48557        -1.91522         2.48557
            3318               1     362.112E-03         1.09858     362.112E-03        -1.09858
            3319               1     50.0596E-03         1.80262     50.0596E-03        -1.80262
            3320               1     414.819E-03         1.46810     414.819E-03        -1.46810
            3321               1     250.639E-03         1.22737    -250.639E-03         1.22737
            3322               1     334.735E-03         1.49787     334.735E-03        -1.49787
            3323               1         3.26756     777.537E-03         3.26756    -777.537E-03
            3324               1     698.141E-03     363.944E-03     698.141E-03     363.944E-03
            3325               1     250.864E-03         1.51487     250.864E-03        -1.51487
            3326               1     23.6800E-03         1.19740    -23.6800E-03         1.19740
            3327               1     892.567E-03     996.685E-03    -892.567E-03    -996.685E-03
            3328               1         2.14079     608.976E-03         2.14079    -608.976E-03
            3329               1         1.69541         1.21375        -1.69541        -1.21375
            3330               1     800.590E-03     477.407E-03     800.590E-03     477.407E-03
            3331               1         1.22371     210.096E-03         1.22371    -210.096E-03
            3332               1     322.807E-03     530.333E-03     322.807E-03     530.333E-03
            3333               1     941.457E-03     103.479E-03     941.457E-03     103.479E-03
            3334               1         1.51954     80.6513E-03        -1.51954     80.6513E-03
            3335               1         1.06390     181.630E-03         1.06390     181.630E-03
            3336               1     596.962E-03     567.766E-03     596.962E-03     567.766E-03
            3337               1     564.984E-03         1.77370    -564.984E-03        -1.77370
            3338               1     656.680E-03     84.3572E-03     656.680E-03    -84.3572E-03
            3339               1         1.41311         1.27348        -1.41311        -1.27348
            3340               1     835.286E-03     496.583E-03    -835.286E-03    -496.583E-03
            3341               1     941.897E-03         1.15884    -941.897E-03         1.15884
            3342               1     418.842E-03         1.11852    -418.842E-03        -1.11852
            3343               1         3.03423         1.20517         3.03423        -1.20517
            3344               1         1.28452         2.27852        -1.28452         2.27852
            3345               1         1.05758         2.80605         1.05758        -2.80605
            3346               1     75.3442E-03     155.575E-03    -75.3442E-03     155.575E-03
            3347               1         1.18575     87.8037E-03         1.18575    -87.8037E-03
            3348               1     191.121E-03     188.067E-03    -191.121E-03    -188.067E-03
            3349               1     258.720E-03     144.876E-03     258.720E-03    -144.876E-03
            3350               1         2.64088         1.26924        -2.64088         1.26924
            3351               1         1.60733         1.05720        -1.60733         1.05720
            3352               1     734.066E-03     796.413E-03    -734.066E-03     796.413E-03
            3353               1     551.245E-03     47.6270E-03     551.245E-03     47.6270E-03
            3354               1     306.310E-03     600.448E-03    -306.310E-03    -600.448E-03
            3355               1     855.854E-03     982.487E-03    -855.854E-03     982.487E-03
            3356               1         1.06409     784.294E-03         1.06409    -784.294E-03
            3357               1     886.835E-03         1.09940     886.835E-03        -1.09940
            3358               1         2.30983         1.54192        -2.30983         1.54192
            3359               1         1.16167     87.6430E-03         1.16167    -87.6430E-03
            3360               1     703.374E-03         1.08893     703.374E-03        -1.08893
            3361               1     864.712E-03         1.03417    -864.712E-03         1.03417
            3362               1         2.87313         1.06290        -2.87313         1.06290
            3363               1         1.16922     768.090E-03        -1.16922     768.090E-03
            3364               1         1.12430     493.371E-03        -1.12430     493.371E-03
            3365               1     829.730E-03         1.09185     829.730E-03        -1.09185
            3366               1         1.11565         2.83381        -1.11565         2.83381
            3367               1         3.44485     802.135E-03        -3.44485     802.135E-03
            3368               1     14.0028E-03         1.58830     14.0028E-03         1.58830
            3369               1     602.543E-03         1.55067    -602.543E-03        -1.55067
            3370               1     822.130E-03     885.312E-03     822.130E-03    -885.312E-03
            3371               1         1.18519         2.22904         1.18519        -2.22904
            3372               1     517.068E-03         1.08928    -517.068E-03        -1.08928
            3373               1     277.607E-03         1.01679     277.607E-03         1.01679
            3374               1     6.58752E-03     69.6834E-03     6.58752E-03    -69.6834E-03
            3375               1     727.608E-03     801.889E-03    -727.608E-03     801.889E-03
            3376               1         1.56945     748.792E-03        -1.56945     748.792E-03
            3377               1         3.14009         1.05475        -3.14009         1.05475
            3378               1         1.32556     140.847E-03        -1.32556     140.847E-03
            3379               1     127.352E-03     73.1152E-03    -127.352E-03    -73.1152E-03
            3380               1         3.30955     797.257E-03         3.30955    -797.257E-03
            3381               1         1.55067     602.543E-03        -1.55067    -602.543E-03
            3382               1     461.235E-03         1.22014    -461.235E-03         1.22014
            3383               1         2.46846     915.166E-03         2.46846    -915.166E-03
            3384               1     652.229E-03         2.05281    -652.229E-03        -2.05281
            3385               1         1.60097     234.139E-03        -1.60097     234.139E-03
            3386               1     969.602E-03     987.423E-03    -969.602E-03     987.423E-03
            3387               1         2.15272         1.28752        -2.15272         1.28752
            3388               1         1.67813     572.289E-03        -1.67813    -572.289E-03
            3389               1         1.08939         2.60221         1.08939        -2.60221
            3390               1     702.429E-03     807.412E-03     702.429E-03    -807.412E-03
            3391               1     907.265E-03         1.10943    -907.265E-03         1.10943
            3392               1         2.85729         1.16227         2.85729        -1.16227
            3393               1     470.881E-03     304.387E-03    -470.881E-03    -304.387E-03
            3394               1     518.808E-03     496.561E-03     518.808E-03     496.561E-03
            3395               1         1.16035     402.936E-03        -1.16035     402.936E-03
            3396               1         1.20020     847.859E-03        -1.20020     847.859E-03
            3397               1     431.828E-03     618.117E-03    -431.828E-03    -618.117E-03
            3398               1     422.474E-03         1.52234     422.474E-03        -1.52234
            3399               1     199.619E-03         1.21091    -199.619E-03         1.21091
            3400               1     544.542E-03         1.11190    -544.542E-03         1.11190
            3401               1         1.72850     96.7173E-03        -1.72850     96.7173E-03
            3402               1     447.088E-03         1.25877    -447.088E-03        -1.25877
            3403               1         3.02009         1.20810         3.02009        -1.20810
            3404               1         1.02514         1.27752         1.02514        -1.27752
            3405               1         1.30883         3.02802        -1.30883         3.02802
            3406               1     511.807E-03     724.558E-03     511.807E-03     724.558E-03
            3407               1     663.250E-03     652.435E-03    -663.250E-03     652.435E-03
            3408               1         2.55738     933.408E-03         2.55738    -933.408E-03
            3409               1         1.28323     769.610E-03        -1.28323    -769.610E-03
            3410               1     760.382E-03         1.95237     760.382E-03        -1.95237
            3411               1         3.22069         1.46689        -3.22069         1.46689
            3412               1         1.01308     242.746E-03         1.01308     242.746E-03
            3413               1         1.59382     99.4479E-03        -1.59382    -99.4479E-03
            3414               1     685.894E-03     712.421E-03    -685.894E-03     712.421E-03
            3415               1     493.803E-03     660.243E-03    -493.803E-03    -660.243E-03
            3416               1     394.300E-03         1.49429     394.300E-03        -1.49429
            3417               1     24.4521E-03         1.60368    -24.4521E-03        -1.60368
            3418               1     138.683E-03         1.16407     138.683E-03         1.16407
            3419               1         1.03342     928.509E-03        -1.03342     928.509E-03
            3420               1     660.243E-03     493.803E-03    -660.243E-03    -493.803E-03
            3421               1         2.98809         1.14247         2.98809        -1.14247
            3422               1     524.439E-03         1.59510    -524.439E-03        -1.59510
            3423               1     844.982E-03     952.224E-03     844.982E-03    -952.224E-03
            3424               1     633.335E-03         1.15920     633.335E-03        -1.15920
            3425               1         1.09113     330.956E-03        -1.09113     330.956E-03
            3426               1     939.898E-03     764.792E-03    -939.898E-03     764.792E-03
            3427               1     937.089E-03         1.02687     937.089E-03        -1.02687
            3428               1     931.388E-03     661.869E-03    -931.388E-03     661.869E-03
            3429               1     695.713E-03     573.793E-03     695.713E-03    -573.793E-03
            3430               1     993.438E-03     814.100E-03     993.438E-03    -814.100E-03
            3431               1         1.13925         2.97841        -1.13925         2.97841
            3432               1         1.71178     41.1222E-03        -1.71178    -41.1222E-03
            3433               1         1.10140         2.90997        -1.10140         2.90997
            3434               1     505.027E-03         1.15748    -505.027E-03        -1.15748
            3435               1         3.39588     746.858E-03        -3.39588     746.858E-03
            3436               1         1.00527         2.69118        -1.00527         2.69118
            3437               1     706.020E-03     276.927E-03     706.020E-03     276.927E-03
            3438               1     978.435E-03     761.071E-03    -978.435E-03     761.071E-03
            3439               1     904.995E-03         1.13429     904.995E-03        -1.13429
            3440               1     420.164E-03         1.65792    -420.164E-03        -1.65792
            3441               1     204.936E-03         1.20241    -204.936E-03         1.20241
            3442               1         1.57061         2.32272         1.57061        -2.32272
            3443               1     545.316E-03         1.68087    -545.316E-03        -1.68087
            3444               1     910.199E-03         1.33628     910.199E-03        -1.33628
            3445               1     849.063E-03         1.13017     849.063E-03        -1.13017
            3446               1         1.23378     210.050E-03         1.23378    -210.050E-03
            3447               1     168.756E-03     157.874E-03    -168.756E-03     157.874E-03
            3448               1     581.382E-03         1.53042    -581.382E-03        -1.53042
            3449               1     671.681E-03     18.4140E-03     671.681E-03     18.4140E-03
            3450               1         1.45703         2.62498        -1.45703         2.62498
            3451               1         1.18753     412.095E-03         1.18753    -412.095E-03
            3452               1     840.521E-03     969.956E-03    -840.521E-03    -969.956E-03
            3453               1     559.319E-03     853.548E-03     559.319E-03    -853.548E-03
            3454               1     70.2235E-03     348.788E-03    -70.2235E-03    -348.788E-03
            3455               1         1.49076     598.291E-03        -1.49076    -598.291E-03
            3456               1     945.427E-03         2.49105    -945.427E-03         2.49105
            3457               1     524.627E-03         1.21191     524.627E-03        -1.21191
            3458               1         1.50901     854.718E-03        -1.50901     854.718E-03
            3459               1         3.41004     752.119E-03        -3.41004     752.119E-03
            3460               1     532.494E-03         1.91883    -532.494E-03        -1.91883
            3461               1     584.951E-03         1.39597     584.951E-03        -1.39597
            3462               1         1.06229         1.15713         1.06229        -1.15713
            3463               1         2.54826         1.78187        -2.54826         1.78187
            3464               1     788.595E-03     361.627E-03    -788.595E-03     361.627E-03
            3465               1         2.81668     684.232E-03         2.81668    -684.232E-03
            3466               1     318.922E-03         1.54354     318.922E-03        -1.54354
            3467               1     926.604E-03         1.02781    -926.604E-03         1.02781
            3468               1     925.895E-03         1.42788    -925.895E-03        -1.42788
            3469               1         1.20810         3.02009        -1.20810         3.02009
            3470               1         1.22962     27.8740E-03         1.22962    -27.8740E-03
            3471               1         1.04354     723.113E-03        -1.04354     723.113E-03
            3472               1     599.098E-03     304.542E-03     599.098E-03     304.542E-03
            3473               1     560.680E-03         1.15641     560.680E-03        -1.15641
            3474               1         1.79542         2.73479         1.79542        -2.73479
            3475               1     905.919E-03     328.608E-03     905.919E-03     328.608E-03
            3476               1         1.52870         2.43015        -1.52870         2.43015
            3477               1     760.888E-03         1.10017    -760.888E-03         1.10017
            3478               1     786.075E-03         1.39423     786.075E-03        -1.39423
            3479               1     615.790E-03         1.26439     615.790E-03        -1.26439
            3480               1     728.647E-03     600.467E-03    -728.647E-03     600.467E-03
            3481               1         1.15064         2.92731        -1.15064         2.92731
            3482               1     850.075E-03     998.055E-03    -850.075E-03     998.055E-03
            3483               1     653.625E-03     761.927E-03     653.625E-03    -761.927E-03
            3484               1         3.02265         1.17838        -3.02265         1.17838
            3485               1         1.67253     129.927E-03        -1.67253     129.927E-03
            3486               1         1.83239         1.97313         1.83239        -1.97313
            3487               1         1.10503         2.79362        -1.10503         2.79362
            3488               1     899.029E-03     782.850E-03     899.029E-03    -782.850E-03
            3489               1         2.80605         1.05758        -2.80605         1.05758
            3490               1     16.8091E-03         1.60683    -16.8091E-03        -1.60683
            3491               1         1.20298     44.4024E-03         1.20298     44.4024E-03
            3492               1     198.527E-03         1.16500    -198.527E-03         1.16500
            3493               1     879.428E-03         1.08820    -879.428E-03        -1.08820
            3494               1     994.273E-03     858.606E-03    -994.273E-03     858.606E-03
            3495               1         2.47777         1.57080         2.47777        -1.57080
            3496               1     568.259E-03         2.19655    -568.259E-03        -2.19655
            3497               1     850.868E-03     984.207E-03    -850.868E-03     984.207E-03
            3498               1     240.045E-03     763.554E-03     240.045E-03    -763.554E-03
            3499               1         1.38217         3.17447        -1.38217         3.17447
            3500               1         1.33149         3.13344        -1.33149         3.13344
            3501               1         1.49608         2.34627         1.49608        -2.34627
            3502               1         1.36274         3.11438        -1.36274         3.11438
            3503               1     60.1222E-03         1.68789     60.1222E-03        -1.68789
            3504               1         2.83983         1.44984        -2.83983         1.44984
            3505               1     864.730E-03         1.14217     864.730E-03        -1.14217
            3506               1     975.477E-03     766.906E-03    -975.477E-03     766.906E-03
            3507               1         1.50610     970.065E-03        -1.50610    -970.065E-03
            3508               1         1.18805     833.910E-03        -1.18805     833.910E-03
            3509               1     343.193E-03         1.66070    -343.193E-03        -1.66070
            3510               1         1.13374     558.970E-03         1.13374    -558.970E-03
            3511               1         1.06117     501.347E-03        -1.06117    -501.347E-03
            3512               1     149.305E-03         1.62178     149.305E-03        -1.62178
            3513               1     377.565E-03     935.470E-03     377.565E-03     935.470E-03
            3514               1     258.812E-03         1.84109     258.812E-03        -1.84109
            3515               1     752.430E-03     827.174E-03    -752.430E-03     827.174E-03
            3516               1     754.430E-03     714.886E-03    -754.430E-03     714.886E-03
            3517               1         1.28095     369.979E-03         1.28095    -369.979E-03
            3518               1         1.62817     653.743E-03        -1.62817    -653.743E-03
            3519               1     809.352E-03     27.5976E-03     809.352E-03     27.5976E-03
            3520               1     381.681E-03     459.252E-03     381.681E-03     459.252E-03
            3521               1     584.794E-03     262.072E-03    -584.794E-03    -262.072E-03
            3522               1     911.389E-03     358.082E-03    -911.389E-03     358.082E-03
            3523               1     470.254E-03         2.03141    -470.254E-03        -2.03141
            3524               1         2.94974     710.674E-03         2.94974    -710.674E-03
            3525               1     375.016E-03         1.46336     375.016E-03        -1.46336
            3526               1         1.86592         2.44454        -1.86592         2.44454
            3527               1         2.02187         1.12406         2.02187        -1.12406
            3528               1         3.40566     749.180E-03        -3.40566     749.180E-03
            3529               1     606.402E-03     852.441E-03    -606.402E-03     852.441E-03
            3530               1         1.04633     469.200E-03        -1.04633    -469.200E-03
            3531               1     929.869E-03     296.654E-03     929.869E-03     296.654E-03
            3532               1     863.011E-03         1.01452    -863.011E-03         1.01452
            3533               1         1.32073         3.04872        -1.32073         3.04872
            3534               1         1.19550     967.377E-03        -1.19550     967.377E-03
            3535               1     792.179E-03     751.618E-03    -792.179E-03     751.618E-03
            3536               1     890.356E-03     848.906E-03    -890.356E-03     848.906E-03
            3537               1     471.930E-03         1.49131    -471.930E-03        -1.49131
            3538               1     333.487E-03     84.4344E-03     333.487E-03     84.4344E-03
            3539               1         1.08078     918.617E-03         1.08078    -918.617E-03
            3540               1         1.33866         1.87663         1.33866        -1.87663
            3541               1         1.24856     938.091E-03         1.24856    -938.091E-03
            3542               1         3.26146     798.551E-03         3.26146    -798.551E-03
            3543               1         1.17911     774.585E-03         1.17911    -774.585E-03
            3544               1     812.809E-03     765.027E-03     812.809E-03    -765.027E-03
            3545               1     657.647E-03     128.037E-03     657.647E-03     128.037E-03
            3546               1         3.10138         1.19836        -3.10138         1.19836
            3547               1     661.650E-03         1.85555    -661.650E-03        -1.85555
            3548               1     827.539E-03     922.477E-03    -827.539E-03     922.477E-03
            3549               1     71.7994E-03         1.03869     71.7994E-03         1.03869
            3550               1     189.279E-03     985.731E-03     189.279E-03     985.731E-03
            3551               1     915.734E-03     320.308E-03     915.734E-03     320.308E-03
            3552               1         1.58446     191.155E-03        -1.58446    -191.155E-03
            3553               1         2.19489         1.16268        -2.19489         1.16268
            3554               1     209.493E-03         1.20285    -209.493E-03         1.20285
            3555               1         1.70844         1.04587        -1.70844        -1.04587
            3556               1     86.5302E-03     342.363E-03     86.5302E-03     342.363E-03
            3557               1     559.193E-03         1.26183    -559.193E-03         1.26183
            3558               1         2.05165     249.888E-03        -2.05165     249.888E-03
            3559               1     707.245E-03         1.65111     707.245E-03        -1.65111
            3560               1         1.39300         2.83781         1.39300        -2.83781
            3561               1     332.897E-03         1.11875     332.897E-03        -1.11875
            3562               1     623.494E-03     623.863E-03    -623.494E-03     623.863E-03
            3563               1         1.02194     866.680E-03        -1.02194     866.680E-03
            3564               1     969.249E-03     815.520E-03    -969.249E-03     815.520E-03
            3565               1     824.565E-03     896.461E-03    -824.565E-03     896.461E-03
            3566               1         1.35977         3.10752        -1.35977         3.10752
            3567               1     856.194E-03     988.376E-03    -856.194E-03     988.376E-03
            3568               1         1.05124     921.525E-03         1.05124    -921.525E-03
            3569               1     611.606E-03     699.902E-03    -611.606E-03    -699.902E-03
            3570               1         1.53107     832.910E-03        -1.53107    -832.910E-03
            3571               1         1.04247     67.5111E-03         1.04247     67.5111E-03
            3572               1     314.459E-03         1.75450     314.459E-03        -1.75450
            3573               1     956.819E-03     236.249E-03     956.819E-03    -236.249E-03
            3574               1         1.26937         1.71930        -1.26937         1.71930
            3575               1         2.06432     425.126E-03        -2.06432     425.126E-03
            3576               1     694.036E-03     710.329E-03    -694.036E-03     710.329E-03
            3577               1     685.371E-03     642.323E-03     685.371E-03    -642.323E-03
            3578               1     754.052E-03     867.119E-03     754.052E-03    -867.119E-03
            3579               1     595.200E-03     500.614E-03    -595.200E-03    -500.614E-03
            3580               1     196.927E-03         1.19549     196.927E-03         1.19549
            3581               1     270.715E-03         1.62738    -270.715E-03        -1.62738
            3582               1     375.070E-03         1.60355    -375.070E-03        -1.60355
            3583               1     578.926E-03     507.911E-03    -578.926E-03    -507.911E-03
            3584               1     731.528E-03     513.608E-03     731.528E-03     513.608E-03
            3585               1         1.20285     209.493E-03         1.20285    -209.493E-03
            3586               1     220.009E-03         1.58874     220.009E-03        -1.58874
            3587               1     388.893E-03     549.115E-03     388.893E-03     549.115E-03
            3588               1         1.72403     449.299E-03        -1.72403    -449.299E-03
            3589               1         1.61222     218.793E-03        -1.61222    -218.793E-03
            3590               1     722.824E-03     813.081E-03    -722.824E-03    -813.081E-03
            3591               1     886.261E-03     572.008E-03    -886.261E-03    -572.008E-03
            3592               1         1.25478     397.683E-03         1.25478    -397.683E-03
            3593               1     253.795E-03         1.15482     253.795E-03         1.15482
            3594               1     745.460E-03     710.939E-03    -745.460E-03     710.939E-03
            3595               1     735.811E-03     641.932E-03    -735.811E-03     641.932E-03
            3596               1         3.01531         1.17341        -3.01531         1.17341
            3597               1     207.429E-03         1.15447     207.429E-03         1.15447
            3598               1     697.603E-03     539.411E-03    -697.603E-03    -539.411E-03
            3599               1     963.293E-03         1.34982     963.293E-03        -1.34982
            3600               1         2.27852         1.28452         2.27852        -1.28452
            3601               1     492.039E-03     398.285E-03    -492.039E-03     398.285E-03
            3602               1         1.19902     771.884E-03        -1.19902     771.884E-03
            3603               1     547.619E-03     271.427E-03     547.619E-03     271.427E-03
            3604               1         1.22668     12.2359E-03         1.22668     12.2359E-03
            3605               1         1.10992     417.953E-03         1.10992    -417.953E-03
            3606               1     769.715E-03     915.954E-03     769.715E-03    -915.954E-03
            3607               1     275.627E-03     591.881E-03    -275.627E-03    -591.881E-03
            3608               1         1.34664         2.35422         1.34664        -2.35422
            3609               1     174.169E-03     569.069E-03     174.169E-03     569.069E-03
            3610               1     684.737E-03     179.618E-03     684.737E-03     179.618E-03
            3611               1     672.352E-03         1.51653    -672.352E-03        -1.51653
            3612               1         1.16632     431.488E-03         1.16632    -431.488E-03
            3613               1     407.102E-03     340.314E-03    -407.102E-03    -340.314E-03
            3614               1         1.43833     702.813E-03        -1.43833    -702.813E-03
            3615               1     735.421E-03         1.86758    -735.421E-03        -1.86758
            3616               1     32.8245E-03     289.598E-03    -32.8245E-03     289.598E-03
            3617               1         2.33344         1.48723         2.33344        -1.48723
            3618               1         1.59789     202.767E-03        -1.59789     202.767E-03
            3619               1         1.69582     41.2382E-03        -1.69582     41.2382E-03
            3620               1     721.528E-03     708.631E-03    -721.528E-03     708.631E-03
            3621               1         1.14364     544.103E-03         1.14364    -544.103E-03
            3622               1         1.07142         1.41278        -1.07142        -1.41278
            3623               1         2.87466         1.14981         2.87466        -1.14981
            3624               1     756.018E-03     709.563E-03    -756.018E-03     709.563E-03
            3625               1     618.424E-03     515.475E-03    -618.424E-03     515.475E-03
            3626               1         2.68173         1.52493         2.68173        -1.52493
            3627               1     970.846E-03     940.003E-03     970.846E-03    -940.003E-03
            3628               1     717.967E-03     377.336E-03     717.967E-03    -377.336E-03
            3629               1     805.843E-03     367.695E-03     805.843E-03     367.695E-03
            3630               1         1.98540         2.38397         1.98540        -2.38397
            3631               1     895.838E-03     397.925E-03     895.838E-03    -397.925E-03
            3632               1     290.652E-03     488.466E-03     290.652E-03     488.466E-03
            3633               1         2.51198         1.75976        -2.51198         1.75976
            3634               1     689.278E-03     707.635E-03     689.278E-03    -707.635E-03
            3635               1     32.1630E-03     236.470E-03     32.1630E-03     236.470E-03
            3636               1     480.655E-03     332.373E-03     480.655E-03     332.373E-03
            3637               1         1.11773     813.601E-03         1.11773    -813.601E-03
            3638               1         1.17208         2.17097        -1.17208         2.17097
            3639               1     203.834E-03     142.067E-03     203.834E-03     142.067E-03
            3640               1         1.01532     153.964E-03         1.01532     153.964E-03
            3641               1     1.60843E-03         1.45834     1.60843E-03        -1.45834
            3642               1     160.264E-03         1.65981     160.264E-03        -1.65981
            3643               1         1.95988         2.60331        -1.95988         2.60331
            3644               1         3.04728         1.18805        -3.04728         1.18805
            3645               1     27.5544E-03         1.70679    -27.5544E-03        -1.70679
            3646               1         1.43452     510.767E-03        -1.43452    -510.767E-03
            3647               1         2.61442         1.81532        -2.61442         1.81532
            3648               1         1.49138         2.40183        -1.49138         2.40183
            3649               1         3.13599         1.26984        -3.13599         1.26984
            3650               1         1.01988     804.030E-03        -1.01988     804.030E-03
            3651               1         1.67257     692.383E-03        -1.67257    -692.383E-03
            3652               1     905.182E-03         1.19032    -905.182E-03        -1.19032
            3653               1     298.766E-03     840.959E-03     298.766E-03    -840.959E-03
            3654               1     533.118E-03         1.34000    -533.118E-03        -1.34000
            3655               1         1.11072     110.174E-03         1.11072     110.174E-03
            3656               1         1.29562     424.961E-03        -1.29562    -424.961E-03
            3657               1         1.27891     454.122E-03        -1.27891     454.122E-03
            3658               1     607.163E-03         1.21505    -607.163E-03         1.21505
            3659               1     671.903E-03     759.714E-03     671.903E-03    -759.714E-03
            3660               1         1.18021     884.886E-03         1.18021    -884.886E-03
            3661               1         1.40792     633.108E-03         1.40792    -633.108E-03
            3662               1     555.560E-03         1.56538    -555.560E-03        -1.56538
            3663               1     310.892E-03     539.561E-03    -310.892E-03    -539.561E-03
            3664               1     666.583E-03         1.62985     666.583E-03        -1.62985
            3665               1         1.06575         1.37893         1.06575        -1.37893
            3666               1     31.5279E-03         1.22810     31.5279E-03         1.22810
            3667               1         1.13383     876.111E-03        -1.13383     876.111E-03
            3668               1     669.313E-03     939.251E-03     669.313E-03    -939.251E-03
            3669               1     940.003E-03     970.846E-03    -940.003E-03     970.846E-03
            3670               1     687.641E-03     702.817E-03    -687.641E-03     702.817E-03
            3671               1         1.12223     210.068E-03         1.12223     210.068E-03
            3672               1         2.03321         1.13968        -2.03321         1.13968
            3673               1     427.421E-03         1.06274    -427.421E-03         1.06274
            3674               1         1.18751     567.169E-03        -1.18751     567.169E-03
            3675               1         1.21987         1.01131        -1.21987         1.01131
            3676               1         2.95680         1.10154        -2.95680         1.10154
            3677               1         1.27842         1.01984         1.27842        -1.01984
            3678               1         1.17418     483.639E-03        -1.17418    -483.639E-03
            3679               1         2.67696         1.95820        -2.67696         1.95820
            3680               1         1.30865         2.34262         1.30865        -2.34262
            3681               1     834.951E-03         1.08235     834.951E-03        -1.08235
            3682               1         1.66464     467.698E-03        -1.66464    -467.698E-03
            3683               1         1.61378     708.831E-03         1.61378    -708.831E-03
            3684               1         2.03070         1.93150        -2.03070         1.93150
            3685               1         1.62386         1.74999         1.62386        -1.74999
            3686               1     291.054E-03         1.16612    -291.054E-03         1.16612
            3687               1     551.629E-03         1.77544    -551.629E-03        -1.77544
            3688               1     376.915E-03         1.21436    -376.915E-03         1.21436
            3689               1     45.5237E-03     183.649E-03    -45.5237E-03     183.649E-03
            3690               1         1.68814     884.221E-03        -1.68814    -884.221E-03
            3691               1     115.602E-03         1.72153     115.602E-03        -1.72153
            3692               1         1.77001     228.174E-03        -1.77001    -228.174E-03
            3693               1         1.72096     31.1428E-03        -1.72096     31.1428E-03
            3694               1         2.36639         1.47888         2.36639        -1.47888
            3695               1     851.398E-03     801.873E-03    -851.398E-03     801.873E-03
            3696               1         1.47888         2.36639        -1.47888         2.36639
            3697               1     608.452E-03     550.727E-03    -608.452E-03     550.727E-03
            3698               1     784.067E-03         1.02218    -784.067E-03         1.02218
            3699               1     573.742E-03         1.45401     573.742E-03        -1.45401
            3700               1         1.97290     476.822E-03        -1.97290    -476.822E-03
            3701               1     77.0374E-03         1.00994    -77.0374E-03         1.00994
            3702               1         1.87494         2.47354        -1.87494         2.47354
            3703               1     821.113E-03     824.830E-03    -821.113E-03     824.830E-03
            3704               1         1.33615         1.09703        -1.33615         1.09703
            3705               1         1.16709     236.323E-03         1.16709    -236.323E-03
            3706               1         2.91599         1.10643         2.91599        -1.10643
            3707               1     997.967E-03     339.242E-03     997.967E-03     339.242E-03
            3708               1         1.28546         1.03661         1.28546        -1.03661
            3709               1         1.08779         1.68489        -1.08779         1.68489
            3710               1         1.11648     409.672E-03         1.11648    -409.672E-03
            3711               1         1.79242         1.72959         1.79242        -1.72959
            3712               1     264.911E-03         1.87598     264.911E-03        -1.87598
            3713               1     403.612E-03     503.276E-03     403.612E-03    -503.276E-03
            3714               1     154.300E-03         1.18303    -154.300E-03         1.18303
            3715               1     94.5582E-03         2.32935     94.5582E-03        -2.32935
            3716               1         1.50965         1.95560         1.50965        -1.95560
            3717               1     348.449E-03         1.98245    -348.449E-03        -1.98245
            3718               1     782.316E-03     766.532E-03    -782.316E-03     766.532E-03
            3719               1         1.16634     258.668E-03         1.16634    -258.668E-03
            3720               1         2.02990         2.57219        -2.02990         2.57219
            3721               1     616.886E-03     866.976E-03     616.886E-03    -866.976E-03
            3722               1         1.63094     403.485E-03        -1.63094    -403.485E-03
            3723               1         1.20544     679.887E-03        -1.20544     679.887E-03
            3724               1         1.21465     158.451E-03         1.21465    -158.451E-03
            3725               1     207.064E-03     195.055E-03    -207.064E-03     195.055E-03
            3726               1         2.97841         1.13925         2.97841        -1.13925
            3727               1     830.497E-03         1.44739     830.497E-03        -1.44739
            3728               1     672.209E-03     718.861E-03     672.209E-03    -718.861E-03
            3729               1         1.20861     842.058E-03         1.20861    -842.058E-03
            3730               1         2.88673         1.09848         2.88673        -1.09848
            3731               1         2.44454         1.86592         2.44454        -1.86592
            3732               1         1.41329         2.45803        -1.41329         2.45803
            3733               1     939.840E-03     509.688E-03    -939.840E-03     509.688E-03
            3734               1     844.211E-03     203.062E-03     844.211E-03     203.062E-03
            3735               1         1.30700         1.94858         1.30700        -1.94858
            3736               1     142.457E-03     47.9380E-03    -142.457E-03     47.9380E-03
            3737               1     465.390E-03     538.943E-03    -465.390E-03     538.943E-03
            3738               1     943.002E-03         1.24638     943.002E-03        -1.24638
            3739               1         1.02102     596.676E-03         1.02102    -596.676E-03
            3740               1         1.15597     553.696E-03        -1.15597    -553.696E-03
            3741               1     538.688E-03     893.264E-03    -538.688E-03     893.264E-03
            3742               1     650.719E-03     484.357E-03    -650.719E-03     484.357E-03
            3743               1         2.60221         1.08939        -2.60221         1.08939
            3744               1     290.569E-03         1.06666     290.569E-03        -1.06666
            3745               1     489.760E-03         1.20039    -489.760E-03        -1.20039
            3746               1     462.054E-03     23.9287E-03    -462.054E-03     23.9287E-03
            3747               1     397.710E-03         1.11921    -397.710E-03         1.11921
            3748               1     234.971E-03     625.557E-03    -234.971E-03     625.557E-03
            3749               1         1.00037     324.682E-03         1.00037     324.682E-03
            3750               1     734.363E-03     671.760E-03    -734.363E-03     671.760E-03
            3751               1     262.510E-03     916.494E-03     262.510E-03    -916.494E-03
            3752               1         1.59237         1.84259        -1.59237         1.84259
            3753               1         1.22810     31.5279E-03         1.22810     31.5279E-03
            3754               1         2.22318         1.52443        -2.22318         1.52443
            3755               1     899.097E-03     749.105E-03    -899.097E-03     749.105E-03
            3756               1     725.574E-03         1.21852    -725.574E-03         1.21852
            3757               1     460.452E-03         2.36973     460.452E-03        -2.36973
            3758               1         1.87308         1.62618         1.87308        -1.62618
            3759               1     834.143E-03         1.43975     834.143E-03        -1.43975
            3760               1     131.712E-03     52.2836E-03    -131.712E-03     52.2836E-03
            3761               1         1.00162         1.41986        -1.00162         1.41986
            3762               1         1.17745     501.882E-03        -1.17745    -501.882E-03
            3763               1         1.80618     393.800E-03        -1.80618     393.800E-03
            3764               1     721.806E-03     767.085E-03     721.806E-03    -767.085E-03
            3765               1         2.40569         1.98613         2.40569        -1.98613
            3766               1         1.12206     495.944E-03        -1.12206    -495.944E-03
            3767               1     781.979E-03     169.783E-03     781.979E-03    -169.783E-03
            3768               1     344.107E-03         1.59660    -344.107E-03        -1.59660
            3769               1         2.09174         1.47085        -2.09174         1.47085
            3770               1     12.2359E-03         1.22668     12.2359E-03         1.22668
            3771               1     799.538E-03     766.858E-03     799.538E-03    -766.858E-03
            3772               1         2.32935     94.5582E-03        -2.32935     94.5582E-03
            3773               1         1.51151     807.221E-03        -1.51151    -807.221E-03
            3774               1     818.051E-03     323.711E-03     818.051E-03     323.711E-03
            3775               1     455.605E-03         1.37957    -455.605E-03        -1.37957
            3776               1     838.071E-03     196.769E-03     838.071E-03     196.769E-03
            3777               1     80.4992E-03     948.984E-03    -80.4992E-03     948.984E-03
            3778               1         1.72567     90.1987E-03        -1.72567    -90.1987E-03
            3779               1         1.47085         2.09174         1.47085        -2.09174
            3780               1         1.59979         1.91958        -1.59979         1.91958
            3781               1     716.847E-03     763.778E-03    -716.847E-03     763.778E-03
            3782               1     815.494E-03     741.883E-03    -815.494E-03     741.883E-03
            3783               1         3.01436         1.17389        -3.01436         1.17389
            3784               1     930.146E-03     714.082E-03    -930.146E-03     714.082E-03
            3785               1         3.09697         1.25818        -3.09697         1.25818
            3786               1         1.39149         1.00994        -1.39149         1.00994
            3787               1     963.307E-03     681.989E-03    -963.307E-03     681.989E-03
            3788               1     998.988E-03     980.525E-03     998.988E-03    -980.525E-03
            3789               1         1.11849     93.2585E-03         1.11849     93.2585E-03
            3790               1     550.882E-03         1.70083     550.882E-03        -1.70083
            3791               1         1.05890     278.451E-03         1.05890     278.451E-03
            3792               1         1.85868         2.43094        -1.85868         2.43094
            3793               1         1.84109     258.812E-03        -1.84109     258.812E-03
            3794               1         1.20538         1.89549         1.20538        -1.89549
            3795               1     390.438E-03     170.775E-03    -390.438E-03    -170.775E-03
            3796               1     409.467E-03     571.399E-03     409.467E-03    -571.399E-03
            3797               1         2.39464         1.25416         2.39464        -1.25416
            3798               1     393.222E-03         1.28652    -393.222E-03        -1.28652
            3799               1         1.01679     277.607E-03         1.01679     277.607E-03
            3800               1         1.59394     280.109E-03        -1.59394    -280.109E-03
            3801               1         1.66868     359.801E-03        -1.66868     359.801E-03
            3802               1         1.33798     584.255E-03        -1.33798    -584.255E-03
            3803               1     787.118E-03         1.14680    -787.118E-03         1.14680
            3804               1     381.910E-03         1.55224    -381.910E-03        -1.55224
            3805               1     698.638E-03     738.872E-03    -698.638E-03     738.872E-03
            3806               1     667.784E-03     679.143E-03     667.784E-03    -679.143E-03
            3807               1     616.603E-03     609.879E-03    -616.603E-03     609.879E-03
            3808               1     676.130E-03     702.398E-03     676.130E-03    -702.398E-03
            3809               1     605.817E-03     292.248E-03    -605.817E-03    -292.248E-03
            3810               1     164.970E-03         1.78623    -164.970E-03        -1.78623
            3811               1         1.99925         1.91025         1.99925        -1.91025
            3812               1         1.35457     737.592E-03        -1.35457     737.592E-03
            3813               1     478.604E-03     615.718E-03     478.604E-03     615.718E-03
            3814               1     261.899E-03     715.382E-03    -261.899E-03     715.382E-03
            3815               1     22.1150E-03         1.19240    -22.1150E-03         1.19240
            3816               1         1.04271         1.69978        -1.04271         1.69978
            3817               1         1.14025     249.918E-03         1.14025    -249.918E-03
            3818               1     537.772E-03         1.13765     537.772E-03        -1.13765
            3819               1         1.71534     587.649E-03        -1.71534    -587.649E-03
            3820               1     615.718E-03     478.604E-03     615.718E-03     478.604E-03
            3821               1     769.395E-03     370.704E-03     769.395E-03     370.704E-03
            3822               1     394.303E-03     107.661E-03    -394.303E-03    -107.661E-03
            3823               1     142.572E-03     971.139E-03    -142.572E-03     971.139E-03
            3824               1     24.1844E-03         1.17295     24.1844E-03         1.17295
            3825               1     264.753E-03         1.07389    -264.753E-03         1.07389
            3826               1     49.2490E-03         1.72391    -49.2490E-03        -1.72391
            3827               1     268.632E-03         1.73608    -268.632E-03        -1.73608
            3828               1         2.70245         1.48453         2.70245        -1.48453
            3829               1     261.672E-03     839.329E-03    -261.672E-03    -839.329E-03
            3830               1     45.5906E-03     155.563E-03    -45.5906E-03    -155.563E-03
            3831               1         1.72410     342.926E-03        -1.72410    -342.926E-03
            3832               1     155.563E-03     45.5906E-03    -155.563E-03    -45.5906E-03
            3833               1         2.62498         1.45703         2.62498        -1.45703
            3834               1     475.029E-03     244.899E-03    -475.029E-03    -244.899E-03
            3835               1         2.09968         1.71338        -2.09968         1.71338
            3836               1         1.71338         2.09968         1.71338        -2.09968
            3837               1         1.83984     396.153E-03        -1.83984    -396.153E-03
            3838               1     178.987E-03         1.33322     178.987E-03         1.33322
            3839               1         1.12262     592.951E-03         1.12262    -592.951E-03
            3840               1     18.4908E-03         1.59353     18.4908E-03         1.59353
            3841               1         1.76961     249.377E-03        -1.76961    -249.377E-03
            3842               1         1.07649     568.206E-03         1.07649    -568.206E-03
            3843               1         1.41755         1.45998         1.41755        -1.45998
            3844               1     478.683E-03         1.29853    -478.683E-03        -1.29853
            3845               1     625.062E-03     268.435E-03     625.062E-03     268.435E-03
            3846               1         1.16948         2.15446        -1.16948         2.15446
            3847               1     247.473E-03         1.15419     247.473E-03         1.15419
            3848               1     274.530E-03         1.90427    -274.530E-03        -1.90427
            3849               1     683.065E-03     552.668E-03     683.065E-03    -552.668E-03
            3850               1     771.902E-03     469.307E-03     771.902E-03     469.307E-03
            3851               1         2.20528         1.68347         2.20528        -1.68347
            3852               1         2.71553         1.50112         2.71553        -1.50112
            3853               1     66.3970E-03     92.7994E-03    -66.3970E-03    -92.7994E-03
            3854               1     276.388E-03     728.051E-03    -276.388E-03     728.051E-03
            3855               1         1.93107     312.733E-03        -1.93107    -312.733E-03
            3856               1         1.47315         1.38779        -1.47315         1.38779
            3857               1         1.62164     568.411E-03        -1.62164    -568.411E-03
            3858               1     676.534E-03     427.444E-03     676.534E-03     427.444E-03
            3859               1     757.151E-03     408.655E-03     757.151E-03    -408.655E-03
            3860               1     527.272E-03     830.329E-03     527.272E-03    -830.329E-03
            3861               1     21.7443E-03     107.824E-03    -21.7443E-03     107.824E-03
            3862               1     808.549E-03     409.749E-03    -808.549E-03     409.749E-03
            3863               1     843.862E-03     196.894E-03    -843.862E-03     196.894E-03
            3864               1     510.767E-03         1.43452    -510.767E-03        -1.43452
            3865               1         1.77184     436.520E-03        -1.77184    -436.520E-03
            3866               1         1.72955     298.051E-03        -1.72955    -298.051E-03
            3867               1     425.933E-03         1.04930    -425.933E-03         1.04930
            3868               1     762.145E-03         1.49209     762.145E-03        -1.49209
            3869               1     376.918E-03         1.03144    -376.918E-03        -1.03144
            3870               1     452.194E-03     444.261E-03     452.194E-03     444.261E-03
            3871               1         1.48411     768.259E-03        -1.48411    -768.259E-03
            3872               1         1.49209     762.145E-03        -1.49209     762.145E-03
            3873               1     181.845E-03         1.28722     181.845E-03         1.28722
            3874               1     362.804E-03         1.62136    -362.804E-03        -1.62136
            3875               1         1.16416         1.70266         1.16416        -1.70266
            3876               1     490.770E-03         1.58499    -490.770E-03        -1.58499
            3877               1     446.252E-03         1.45989    -446.252E-03        -1.45989
            3878               1     373.355E-03         1.87277    -373.355E-03        -1.87277
            3879               1     568.206E-03         1.07649    -568.206E-03         1.07649
            3880               1     474.304E-03     411.689E-03     474.304E-03     411.689E-03
            3881               1     112.610E-03         1.24888     112.610E-03         1.24888
            3882               1         1.39946     903.211E-03         1.39946    -903.211E-03
            3883               1     95.0190E-03         1.25093    -95.0190E-03        -1.25093
            3884               1     543.963E-03     507.913E-03     543.963E-03    -507.913E-03
            3885               1     472.120E-03     151.601E-03     472.120E-03     151.601E-03
            3886               1     28.5543E-03     186.034E-03     28.5543E-03     186.034E-03
            3887               1         1.26687         2.12228        -1.26687         2.12228
            3888               1     433.190E-03         1.47240    -433.190E-03        -1.47240
            3889               1         2.25789     985.078E-03        -2.25789     985.078E-03
            3890               1     597.431E-03         1.56906     597.431E-03        -1.56906
            3891               1         1.34000     533.118E-03        -1.34000    -533.118E-03
            3892               1     392.935E-03         1.03306    -392.935E-03        -1.03306
            3893               1     954.152E-03     875.664E-03     954.152E-03    -875.664E-03
            3894               1         1.62750     514.145E-03        -1.62750     514.145E-03
            3895               1         1.93950     23.1582E-03        -1.93950     23.1582E-03
            3896               1     1.20558E-03     700.178E-03     1.20558E-03    -700.178E-03
            3897               1         2.24969     786.422E-03        -2.24969     786.422E-03
            3898               1         1.13811         1.00792        -1.13811         1.00792
            3899               1     107.824E-03     21.7443E-03     107.824E-03    -21.7443E-03
            3900               1     423.877E-03     159.628E-03     423.877E-03     159.628E-03
            3901               1     424.312E-03         1.72311    -424.312E-03        -1.72311
            3902               1     116.154E-03         1.11139    -116.154E-03         1.11139
            3903               1         1.07363         1.70847        -1.07363         1.70847
            3904               1     197.980E-03         1.23253     197.980E-03         1.23253
            3905               1     406.457E-03         1.55259    -406.457E-03        -1.55259
            3906               1     833.753E-03     568.063E-03     833.753E-03    -568.063E-03
            3907               1     571.399E-03     409.467E-03    -571.399E-03     409.467E-03
            3908               1     325.680E-03         1.06055     325.680E-03         1.06055
            3909               1         1.48483         1.22901         1.48483        -1.22901
            3910               1     635.357E-03         1.51832     635.357E-03        -1.51832
            3911               1         2.45803         1.41329         2.45803        -1.41329
            3912               1     914.906E-03     98.8843E-03     914.906E-03     98.8843E-03
            3913               1         2.27610         1.90338         2.27610        -1.90338
            3914               1     895.734E-03         2.01451     895.734E-03        -2.01451
            3915               1     418.380E-03         1.83021     418.380E-03        -1.83021
            3916               1     415.775E-03         1.78332    -415.775E-03        -1.78332
            3917               1     170.851E-03         1.11056     170.851E-03        -1.11056
            3918               1         1.85737     992.726E-03         1.85737    -992.726E-03
            3919               1         1.25294     373.616E-03        -1.25294    -373.616E-03
            3920               1         1.20694         1.12931         1.20694        -1.12931
            3921               1     755.729E-03     712.067E-03    -755.729E-03     712.067E-03
            3922               1     205.747E-03     26.0527E-03    -205.747E-03     26.0527E-03
            3923               1         1.53103     691.112E-03        -1.53103    -691.112E-03
            3924               1         1.17842         1.57316         1.17842        -1.57316
            3925               1     234.892E-03         1.41324     234.892E-03        -1.41324
            3926               1     103.409E-03     241.162E-03    -103.409E-03    -241.162E-03
            3927               1         1.53642         1.18172        -1.53642         1.18172
            3928               1     314.365E-03         1.71796    -314.365E-03        -1.71796
            3929               1     271.862E-03         1.11081    -271.862E-03         1.11081
            3930               1         1.23502         1.73840        -1.23502         1.73840
            3931               1     186.899E-03     142.497E-03    -186.899E-03    -142.497E-03
            3932               1     156.445E-03     24.4798E-03    -156.445E-03     24.4798E-03
            3933               1     391.416E-03     293.149E-03     391.416E-03     293.149E-03
            3934               1     882.498E-03         1.15424    -882.498E-03        -1.15424
            3935               1     430.012E-03         1.43968     430.012E-03        -1.43968
            3936               1         1.43820     857.597E-03        -1.43820    -857.597E-03
            3937               1     397.080E-03     167.028E-03    -397.080E-03    -167.028E-03
            3938               1         1.52115     687.112E-03        -1.52115    -687.112E-03
            3939               1         1.93893     173.198E-03        -1.93893     173.198E-03
            3940               1         2.14896         2.12193         2.14896        -2.12193
            3941               1     563.159E-03         1.50732    -563.159E-03        -1.50732
            3942               1         2.62093         1.37689         2.62093        -1.37689
            3943               1         2.43413         1.44894         2.43413        -1.44894
            3944               1         1.15049         1.24141        -1.15049         1.24141
            3945               1         2.47838         1.41905        -2.47838         1.41905
            3946               1     89.9069E-03     52.4136E-03     89.9069E-03    -52.4136E-03
            3947               1     712.067E-03     755.729E-03     712.067E-03    -755.729E-03
            3948               1         2.40771         1.37950        -2.40771         1.37950
            3949               1     196.894E-03     843.862E-03     196.894E-03    -843.862E-03
            3950               1         1.18523         1.58779        -1.18523         1.58779
            3951               1         1.06408     526.914E-03        -1.06408    -526.914E-03
            3952               1     771.845E-03     373.182E-03     771.845E-03     373.182E-03
            3953               1         1.63957     694.049E-03        -1.63957    -694.049E-03
            3954               1     783.487E-03     307.138E-03     783.487E-03     307.138E-03
            3955               1         2.58018         1.91955        -2.58018         1.91955
            3956               1         1.29722         1.32136        -1.29722         1.32136
            3957               1         1.17552         1.25113        -1.17552         1.25113
            3958               1         1.60222         1.34867        -1.60222         1.34867
            3959               1         2.58747         1.71110        -2.58747         1.71110
            3960               1     648.897E-03         1.69091    -648.897E-03        -1.69091
            3961               1         2.46221         1.46859        -2.46221         1.46859
            3962               1         1.38871         1.12152        -1.38871         1.12152
            3963               1         1.98679         1.99386        -1.98679         1.99386
            3964               1         1.28331         1.21278        -1.28331         1.21278
            3965               1     915.229E-03     862.243E-03     915.229E-03    -862.243E-03
            3966               1     862.243E-03     915.229E-03    -862.243E-03     915.229E-03
            3967               1     212.274E-03         1.16378     212.274E-03         1.16378
            3968               1     312.223E-03     432.553E-03    -312.223E-03    -432.553E-03
            3969               1     189.625E-03     576.870E-03    -189.625E-03    -576.870E-03
            3970               1     241.587E-03         4.56083     241.587E-03         4.56083
            3971               1         1.05721         1.07896        -1.05721         1.07896
            3972               1         3.64733     118.955E-03         3.64733     118.955E-03
            3973               1         8.47175         5.58937        -8.47175        -5.58937
            3974               1         4.85652     564.377E-03         4.85652     564.377E-03
            3975               1     681.165E-03     155.903E-03     681.165E-03    -155.903E-03
            3976               1     637.491E-03         4.52174    -637.491E-03        -4.52174
            3977               1         4.80505     621.545E-03         4.80505     621.545E-03
            3978               1     379.248E-03         1.52952    -379.248E-03        -1.52952
            3979               1         1.07809     148.869E-03         1.07809    -148.869E-03
            3980               1     687.589E-03     292.242E-03    -687.589E-03     292.242E-03
            3981               1         1.09694     66.0269E-03         1.09694    -66.0269E-03
            3982               1     440.800E-03         1.79148    -440.800E-03        -1.79148
            3983               1         4.51988     508.435E-03         4.51988     508.435E-03
            3984               1         1.01439     70.1870E-03         1.01439    -70.1870E-03
            3985               1     153.722E-03     3.31385E-03     153.722E-03     3.31385E-03
            3986               1         2.25616     1.17647E-03         2.25616    -1.17647E-03
            3987               1         1.26628     737.374E-03        -1.26628     737.374E-03
            3988               1     911.246E-03         1.07107     911.246E-03        -1.07107
            3989               1         1.18672     283.655E-03         1.18672    -283.655E-03
            3990               1     667.384E-03     501.625E-03     667.384E-03     501.625E-03
            3991               1     949.442E-03     12.2304E-03     949.442E-03     12.2304E-03
            3992               1     776.675E-03     472.063E-03     776.675E-03     472.063E-03
            3993               1     611.793E-03         4.93698     611.793E-03         4.93698
            3994               1         1.07454     145.272E-03         1.07454    -145.272E-03
            3995               1         4.58560     592.513E-03        -4.58560    -592.513E-03
            3996               1     190.300E-03     408.180E-03     190.300E-03    -408.180E-03
            3997               1         1.38937     719.730E-03         1.38937    -719.730E-03
            3998               1         1.29322     796.127E-03         1.29322    -796.127E-03
            3999               1         1.39450     767.219E-03         1.39450    -767.219E-03
            4000               1         4.60453     656.383E-03        -4.60453    -656.383E-03
            4001               1         1.38818     793.080E-03         1.38818    -793.080E-03
            4002               1     779.301E-03         1.20239     779.301E-03        -1.20239
            4003               1     884.670E-03     65.8330E-03    -884.670E-03     65.8330E-03
            4004               1     432.633E-03         1.26098     432.633E-03        -1.26098
            4005               1     171.816E-03         1.49799    -171.816E-03        -1.49799
            4006               1         4.14656     364.395E-03        -4.14656    -364.395E-03
            4007               1         1.35784     790.096E-03         1.35784    -790.096E-03
            4008               1         1.34500     789.059E-03         1.34500    -789.059E-03
            4009               1         1.35699     783.669E-03         1.35699    -783.669E-03
            4010               1         1.18596     344.876E-03        -1.18596    -344.876E-03
            4011               1         3.87177     388.104E-03         3.87177     388.104E-03
            4012               1     353.150E-03         1.42754    -353.150E-03        -1.42754
            4013               1     23.9170E-03         4.03735     23.9170E-03        -4.03735
            4014               1     756.599E-03     180.613E-03     756.599E-03    -180.613E-03
            4015               1     847.833E-03         1.26631    -847.833E-03         1.26631
            4016               1     450.066E-03         3.06750    -450.066E-03        -3.06750
            4017               1     881.900E-03         1.20136    -881.900E-03         1.20136
            4018               1         1.26856     608.955E-03         1.26856    -608.955E-03
            4019               1     891.784E-03         1.22480    -891.784E-03         1.22480
            4020               1     531.410E-03     227.575E-03    -531.410E-03    -227.575E-03
            4021               1     198.184E-03         6.21083    -198.184E-03        -6.21083
            4022               1     820.655E-03         1.32776    -820.655E-03         1.32776
            4023               1     656.832E-03     319.500E-03    -656.832E-03     319.500E-03
            4024               1         1.75224         1.60354        -1.75224        -1.60354
            4025               1     50.3856E-03     23.4786E-03    -50.3856E-03     23.4786E-03
            4026               1     68.9890E-03     52.4324E-03    -68.9890E-03     52.4324E-03
            4027               1         2.85523     181.618E-03         2.85523    -181.618E-03
            4028               1     870.469E-03         1.33803    -870.469E-03         1.33803
            4029               1         1.33233     832.517E-03         1.33233    -832.517E-03
            4030               1         6.64039         5.63820        -6.64039        -5.63820
            4031               1         1.26256     122.710E-03        -1.26256    -122.710E-03
            4032               1     259.589E-03     736.754E-03    -259.589E-03     736.754E-03
            4033               1     979.317E-03         4.83722    -979.317E-03        -4.83722
            4034               1     700.437E-03         1.79314    -700.437E-03        -1.79314
            4035               1     710.146E-03         1.24900     710.146E-03        -1.24900
            4036               1         3.72119     501.475E-03         3.72119    -501.475E-03
            4037               1     921.255E-03         1.22714    -921.255E-03         1.22714
            4038               1     898.062E-03         1.31234    -898.062E-03         1.31234
            4039               1         4.25339     341.673E-03        -4.25339    -341.673E-03
            4040               1     863.833E-03     467.127E-03    -863.833E-03     467.127E-03
            4041               1         1.06416     902.310E-03        -1.06416     902.310E-03
            4042               1         1.08734     333.833E-03        -1.08734    -333.833E-03
            4043               1     763.518E-03         1.26891     763.518E-03        -1.26891
            4044               1     224.687E-03     65.8290E-03     224.687E-03     65.8290E-03
            4045               1         1.33162     768.167E-03         1.33162    -768.167E-03
            4046               1         1.26533         1.18088        -1.26533        -1.18088
            4047               1         1.27097     406.877E-03         1.27097    -406.877E-03
            4048               1         1.26563     401.146E-03         1.26563    -401.146E-03
            4049               1     540.447E-03         5.17243    -540.447E-03        -5.17243
            4050               1         1.18320     902.604E-03        -1.18320     902.604E-03
            4051               1         1.24690     742.729E-03        -1.24690     742.729E-03
            4052               1     823.061E-03         4.85365    -823.061E-03        -4.85365
            4053               1     85.1368E-03     237.776E-03    -85.1368E-03    -237.776E-03
            4054               1     933.214E-03         4.81824    -933.214E-03        -4.81824
            4055               1     876.444E-03     564.846E-03    -876.444E-03     564.846E-03
            4056               1     995.214E-03     363.252E-03     995.214E-03    -363.252E-03
            4057               1     912.679E-03     968.801E-03    -912.679E-03     968.801E-03
            4058               1     835.698E-03     196.838E-03     835.698E-03     196.838E-03
            4059               1         1.39256     782.769E-03         1.39256    -782.769E-03
            4060               1         1.22135         3.62364         1.22135        -3.62364
            4061               1     960.601E-03         4.82427    -960.601E-03        -4.82427
            4062               1     884.080E-03     118.088E-03     884.080E-03     118.088E-03
            4063               1         1.35262     793.653E-03         1.35262    -793.653E-03
            4064               1         2.04629     172.734E-03         2.04629     172.734E-03
            4065               1     605.999E-03     785.718E-03     605.999E-03     785.718E-03
            4066               1     950.138E-03     112.619E-03    -950.138E-03    -112.619E-03
            4067               1         1.24082     768.282E-03        -1.24082     768.282E-03
            4068               1         3.41093     326.774E-03         3.41093     326.774E-03
            4069               1     359.095E-03         4.09325    -359.095E-03        -4.09325
            4070               1         2.63245     203.882E-03         2.63245    -203.882E-03
            4071               1         1.18089     810.365E-03         1.18089    -810.365E-03
            4072               1         1.71085     369.540E-03        -1.71085    -369.540E-03
            4073               1     949.321E-03     15.1470E-03     949.321E-03     15.1470E-03
            4074               1     873.499E-03     562.423E-03    -873.499E-03     562.423E-03
            4075               1     856.597E-03     357.081E-03    -856.597E-03     357.081E-03
            4076               1         1.16941     151.768E-03         1.16941     151.768E-03
            4077               1         1.50416     179.360E-03        -1.50416    -179.360E-03
            4078               1     316.832E-03         1.09453     316.832E-03        -1.09453
            4079               1     791.246E-03         1.31383    -791.246E-03         1.31383
            4080               1     121.134E-03     345.659E-03    -121.134E-03    -345.659E-03
            4081               1         2.30586         1.87015        -2.30586        -1.87015
            4082               1         1.02157         4.99414        -1.02157        -4.99414
            4083               1         1.23215     346.459E-03         1.23215    -346.459E-03
            4084               1     11.6747E-03     50.3318E-03    -11.6747E-03     50.3318E-03
            4085               1     373.624E-03     513.204E-03    -373.624E-03    -513.204E-03
            4086               1         1.93840     945.540E-03        -1.93840     945.540E-03
            4087               1         1.25288     166.783E-03        -1.25288    -166.783E-03
            4088               1         1.29871     458.962E-03         1.29871    -458.962E-03
            4089               1         1.32580     513.828E-03         1.32580    -513.828E-03
            4090               1     4.58482E-03     89.9862E-03     4.58482E-03    -89.9862E-03
            4091               1         1.27445     740.885E-03        -1.27445     740.885E-03
            4092               1         1.24736     821.332E-03         1.24736    -821.332E-03
            4093               1         4.06711     420.852E-03         4.06711     420.852E-03
            4094               1         1.76353         1.63360        -1.76353        -1.63360
            4095               1     955.025E-03     159.460E-03     955.025E-03     159.460E-03
            4096               1     611.170E-03     803.895E-03     611.170E-03     803.895E-03
            4097               1         1.00865         1.17196         1.00865        -1.17196
            4098               1     870.614E-03         1.26284    -870.614E-03         1.26284
            4099               1         2.62029     214.416E-03         2.62029     214.416E-03
            4100               1     809.977E-03         1.27282    -809.977E-03         1.27282
            4101               1         2.92357         1.03640        -2.92357        -1.03640
            4102               1         3.41845     314.889E-03         3.41845     314.889E-03
            4103               1     110.930E-03     6.68709E-03    -110.930E-03     6.68709E-03
            4104               1     450.711E-03     73.1214E-03     450.711E-03    -73.1214E-03
            4105               1         1.22647     341.011E-03         1.22647    -341.011E-03
            4106               1     44.5105E-03     440.155E-03    -44.5105E-03     440.155E-03
            4107               1     588.441E-03     174.745E-03    -588.441E-03    -174.745E-03
            4108               1         1.13027     214.007E-03         1.13027    -214.007E-03
            4109               1         1.14539         2.64011        -1.14539        -2.64011
            4110               1         5.10069         8.08611        -5.10069        -8.08611
            4111               1         4.92381     615.198E-03         4.92381     615.198E-03
            4112               1         1.28542     771.303E-03         1.28542    -771.303E-03
            4113               1         4.33580     193.995E-03         4.33580     193.995E-03
            4114               1     630.005E-03     344.915E-03    -630.005E-03    -344.915E-03
            4115               1     712.166E-03     126.999E-03    -712.166E-03    -126.999E-03
            4116               1         1.29509     737.619E-03         1.29509    -737.619E-03
            4117               1         3.12512     457.239E-03        -3.12512    -457.239E-03
            4118               1     385.835E-03     567.651E-03     385.835E-03     567.651E-03
            4119               1         1.23691     811.960E-03         1.23691    -811.960E-03
            4120               1     861.050E-03     230.882E-03    -861.050E-03     230.882E-03
            4121               1     177.268E-03     490.218E-03    -177.268E-03    -490.218E-03
            4122               1     462.563E-03         2.38161    -462.563E-03        -2.38161
            4123               1     54.6547E-03         4.43771    -54.6547E-03        -4.43771
            4124               1         3.65477     352.426E-03         3.65477     352.426E-03
            4125               1         1.01934         4.96160        -1.01934        -4.96160
            4126               1         1.34299     778.449E-03         1.34299    -778.449E-03
            4127               1     418.491E-03     627.154E-03     418.491E-03     627.154E-03
            4128               1     822.293E-03     119.078E-03    -822.293E-03    -119.078E-03
            4129               1         1.87199     396.110E-03        -1.87199    -396.110E-03
            4130               1         1.08930     108.759E-03        -1.08930    -108.759E-03
            4131               1         1.26494     756.566E-03        -1.26494     756.566E-03
            4132               1         3.64541     364.825E-03         3.64541     364.825E-03
            4133               1         1.18126     278.764E-03         1.18126    -278.764E-03
            4134               1         1.29129         1.16921         1.29129        -1.16921
            4135               1         1.25890     754.922E-03        -1.25890     754.922E-03
            4136               1         4.39458     219.130E-03         4.39458     219.130E-03
            4137               1     911.280E-03     896.183E-03    -911.280E-03     896.183E-03
            4138               1         1.91206     357.360E-03        -1.91206    -357.360E-03
            4139               1         3.57325     435.879E-03        -3.57325    -435.879E-03
            4140               1         4.89617     63.1836E-03        -4.89617    -63.1836E-03
            4141               1         1.34740     564.698E-03         1.34740    -564.698E-03
            4142               1         4.23455     461.849E-03         4.23455     461.849E-03
            4143               1     841.461E-03     265.344E-03     841.461E-03     265.344E-03
            4144               1     350.916E-03         1.46485     350.916E-03        -1.46485
            4145               1         1.16216     49.6191E-03        -1.16216     49.6191E-03
            4146               1         4.04167     112.733E-03         4.04167    -112.733E-03
            4147               1         4.84037     624.851E-03         4.84037     624.851E-03
            4148               1         1.37505     652.069E-03         1.37505    -652.069E-03
            4149               1         3.92013     153.947E-03         3.92013    -153.947E-03
            4150               1     457.239E-03         3.12512    -457.239E-03        -3.12512
            4151               1         1.16969         1.03081        -1.16969         1.03081
            4152               1     284.459E-03     154.274E-03    -284.459E-03    -154.274E-03
            4153               1         1.20198     832.361E-03        -1.20198     832.361E-03
            4154               1         4.72107     542.637E-03         4.72107     542.637E-03
            4155               1         1.27023     747.732E-03        -1.27023     747.732E-03
            4156               1         4.93350     580.314E-03         4.93350     580.314E-03
            4157               1         1.24301     768.446E-03        -1.24301     768.446E-03
            4158               1     758.449E-03     158.686E-03     758.449E-03     158.686E-03
            4159               1         1.37649     801.450E-03         1.37649    -801.450E-03
            4160               1         4.95611     595.259E-03         4.95611     595.259E-03
            4161               1         1.28151     743.230E-03        -1.28151     743.230E-03
            4162               1         3.91137     131.373E-03        -3.91137     131.373E-03
            4163               1         1.27997     742.507E-03        -1.27997     742.507E-03
            4164               1     141.559E-03         2.00020    -141.559E-03        -2.00020
            4165               1         4.71819     675.834E-03        -4.71819    -675.834E-03
            4166               1         1.36524     800.012E-03         1.36524    -800.012E-03
            4167               1     790.096E-03         1.35784    -790.096E-03         1.35784
            4168               1         4.37110     328.407E-03        -4.37110    -328.407E-03
            4169               1         1.39318     746.225E-03         1.39318    -746.225E-03
            4170               1         1.35919     797.403E-03         1.35919    -797.403E-03
            4171               1     907.242E-03         1.10286    -907.242E-03         1.10286
            4172               1     748.261E-03         1.21284     748.261E-03        -1.21284
            4173               1         1.37089     801.486E-03         1.37089    -801.486E-03
            4174               1         1.01575         4.92964        -1.01575        -4.92964
            4175               1     578.993E-03         4.57990    -578.993E-03        -4.57990
            4176               1         1.00288         4.87575        -1.00288        -4.87575
            4177               1     533.519E-03         1.29727    -533.519E-03         1.29727
            4178               1     815.482E-03         1.30045    -815.482E-03         1.30045
            4179               1     191.053E-03         3.09760    -191.053E-03        -3.09760
            4180               1         1.33144     759.043E-03         1.33144    -759.043E-03
            4181               1     711.264E-03         1.23966     711.264E-03        -1.23966
            4182               1     537.326E-03     492.642E-03     537.326E-03     492.642E-03
            4183               1         3.24941     61.5162E-03         3.24941     61.5162E-03
            4184               1         1.34121     743.637E-03         1.34121    -743.637E-03
            4185               1         4.69264     676.744E-03        -4.69264    -676.744E-03
            4186               1     410.473E-03         2.05755    -410.473E-03        -2.05755
            4187               1     907.605E-03         1.17905     907.605E-03        -1.17905
            4188               1         1.35362     711.026E-03         1.35362    -711.026E-03
            4189               1         1.35066     784.386E-03         1.35066    -784.386E-03
            4190               1     580.977E-03         2.63833    -580.977E-03        -2.63833
            4191               1         4.69081     673.061E-03        -4.69081    -673.061E-03
            4192               1         1.35904     652.832E-03         1.35904    -652.832E-03
            4193               1         4.86369     623.271E-03         4.86369     623.271E-03
            4194               1         1.34480     569.178E-03         1.34480    -569.178E-03
            4195               1         1.27755     744.396E-03        -1.27755     744.396E-03
            4196               1     415.152E-03         1.21836    -415.152E-03        -1.21836
            4197               1     581.439E-03     254.177E-03     581.439E-03     254.177E-03
            4198               1     209.913E-03         1.18909     209.913E-03         1.18909
            4199               1         2.51370     13.5593E-03         2.51370     13.5593E-03
            4200               1     728.669E-03         1.22222     728.669E-03        -1.22222
            4201               1         8.44375         5.52723        -8.44375        -5.52723
            4202               1     950.243E-03         3.50542     950.243E-03        -3.50542
            4203               1     578.541E-03     165.285E-03     578.541E-03    -165.285E-03
            4204               1         1.60701         1.40350         1.60701        -1.40350
            4205               1     607.440E-03         4.94740     607.440E-03         4.94740
            4206               1     446.805E-03         4.51641    -446.805E-03        -4.51641
            4207               1     130.835E-03     703.049E-03    -130.835E-03    -703.049E-03
            4208               1     780.915E-03     480.445E-03     780.915E-03     480.445E-03
            4209               1     832.184E-03     192.184E-03     832.184E-03     192.184E-03
            4210               1         6.54993         7.47569        -6.54993        -7.47569
            4211               1     864.434E-03         1.27793    -864.434E-03         1.27793
            4212               1     344.009E-03         1.90471    -344.009E-03        -1.90471
            4213               1     445.575E-03         1.29376    -445.575E-03         1.29376
            4214               1     112.706E-03     939.806E-03    -112.706E-03    -939.806E-03
            4215               1     538.630E-03         2.30551    -538.630E-03        -2.30551
            4216               1     484.034E-03     102.073E-03     484.034E-03    -102.073E-03
            4217               1         2.16436     177.258E-03         2.16436    -177.258E-03
            4218               1     490.414E-03         2.02627    -490.414E-03        -2.02627
            4219               1     120.824E-03     810.076E-03    -120.824E-03    -810.076E-03
            4220               1     265.964E-03     915.372E-03    -265.964E-03    -915.372E-03
            4221               1         1.09310     595.518E-03        -1.09310     595.518E-03
            4222               1         1.30761     827.558E-03         1.30761    -827.558E-03
            4223               1     753.791E-03         1.08524     753.791E-03        -1.08524
            4224               1         4.85578     60.5686E-03        -4.85578    -60.5686E-03
            4225               1         1.17463     160.191E-03         1.17463     160.191E-03
            4226               1         2.09546         1.86523        -2.09546        -1.86523
            4227               1     292.704E-03         1.23598    -292.704E-03         1.23598
            4228               1     308.295E-03         1.22318    -308.295E-03        -1.22318
            4229               1     151.141E-03         3.97684     151.141E-03         3.97684
            4230               1     844.109E-03     267.728E-03     844.109E-03     267.728E-03
            4231               1     889.575E-03     64.9006E-03    -889.575E-03     64.9006E-03
            4232               1     603.033E-03         3.40800    -603.033E-03        -3.40800
            4233               1     463.151E-03     62.7156E-03     463.151E-03    -62.7156E-03
            4234               1     357.943E-03     145.395E-03     357.943E-03    -145.395E-03
            4235               1         2.34124     183.403E-03         2.34124     183.403E-03
            4236               1         1.01586     73.5546E-03         1.01586    -73.5546E-03
            4237               1         1.01037         4.90072        -1.01037        -4.90072
            4238               1         1.13500     218.233E-03         1.13500    -218.233E-03
            4239               1     890.307E-03     655.914E-03    -890.307E-03     655.914E-03
            4240               1     556.029E-03         3.87654    -556.029E-03        -3.87654
            4241               1         1.02634     470.542E-03         1.02634    -470.542E-03
            4242               1     606.043E-03         3.00495    -606.043E-03        -3.00495
            4243               1     882.515E-03     394.526E-03     882.515E-03    -394.526E-03
            4244               1     717.001E-03         1.23093     717.001E-03        -1.23093
            4245               1     992.808E-03         4.85463    -992.808E-03        -4.85463
            4246               1         1.30270     464.704E-03         1.30270    -464.704E-03
            4247               1     859.397E-03         1.34281    -859.397E-03         1.34281
            4248               1     353.761E-03         1.43831     353.761E-03        -1.43831
            4249               1         5.15939         8.16139        -5.15939        -8.16139
            4250               1     21.7482E-03     43.1419E-03     21.7482E-03     43.1419E-03
            4251               1         4.66712     669.746E-03        -4.66712    -669.746E-03
            4252               1         1.32726     519.158E-03         1.32726    -519.158E-03
            4253               1     914.435E-03         1.04217    -914.435E-03         1.04217
            4254               1         1.35515     613.984E-03         1.35515    -613.984E-03
            4255               1     896.206E-03         1.15626    -896.206E-03         1.15626
            4256               1         4.67327     536.402E-03        -4.67327    -536.402E-03
            4257               1         1.05291     74.6948E-03         1.05291     74.6948E-03
            4258               1         1.04329         1.16828         1.04329        -1.16828
            4259               1     712.013E-03         4.93414    -712.013E-03        -4.93414
            4260               1         1.35807     685.236E-03         1.35807    -685.236E-03
            4261               1     865.288E-03         1.23799    -865.288E-03         1.23799
            4262               1     828.282E-03         1.19089     828.282E-03        -1.19089
            4263               1     890.988E-03         4.82442    -890.988E-03        -4.82442
            4264               1         1.34770     730.171E-03         1.34770    -730.171E-03
            4265               1     830.993E-03         1.28667    -830.993E-03         1.28667
            4266               1         4.95427     601.884E-03         4.95427     601.884E-03
            4267               1         4.94740     607.440E-03         4.94740     607.440E-03
            4268               1         1.25657     731.818E-03        -1.25657     731.818E-03
            4269               1     173.611E-03     701.438E-03    -173.611E-03     701.438E-03
            4270               1         1.33533     752.808E-03         1.33533    -752.808E-03
            4271               1     802.011E-03         1.30894    -802.011E-03         1.30894
            4272               1     723.359E-03         1.27750     723.359E-03        -1.27750
            4273               1     250.130E-03         1.27428     250.130E-03        -1.27428
            4274               1         1.33005     763.796E-03         1.33005    -763.796E-03
            4275               1     783.539E-03         1.31712    -783.539E-03         1.31712
            4276               1     712.609E-03         1.25899     712.609E-03        -1.25899
            4277               1     717.495E-03         1.26893     717.495E-03        -1.26893
            4278               1         1.33630     772.890E-03         1.33630    -772.890E-03
            4279               1         4.82028     624.493E-03         4.82028     624.493E-03
            4280               1     902.812E-03     141.227E-03     902.812E-03    -141.227E-03
            4281               1         4.41341     243.865E-03         4.41341     243.865E-03
            4282               1         4.22239     174.487E-03         4.22239     174.487E-03
            4283               1         4.90711     618.017E-03         4.90711     618.017E-03
            4284               1         1.41906     844.200E-03         1.41906    -844.200E-03
            4285               1     625.161E-03         4.56297    -625.161E-03        -4.56297
            4286               1     732.538E-03         1.28606     732.538E-03        -1.28606
            4287               1         4.93698     611.793E-03         4.93698     611.793E-03
            4288               1     884.650E-03         1.30058     884.650E-03        -1.30058
            4289               1         1.28411     781.344E-03         1.28411    -781.344E-03
            4290               1         4.79584     554.817E-03         4.79584     554.817E-03
            4291               1         4.70763     674.847E-03        -4.70763    -674.847E-03
            4292               1         1.28234     742.961E-03        -1.28234     742.961E-03
            4293               1         4.71706     675.598E-03        -4.71706    -675.598E-03
            4294               1         1.38249     798.960E-03         1.38249    -798.960E-03
            4295               1         4.95052     587.963E-03         4.95052     587.963E-03
            4296               1         4.63740     664.409E-03        -4.63740    -664.409E-03
            4297               1         4.90259     572.546E-03         4.90259     572.546E-03
            4298               1     648.894E-03         1.45699    -648.894E-03        -1.45699
            4299               1         1.28502     455.509E-03         1.28502    -455.509E-03
            4300               1     417.056E-03         4.88747    -417.056E-03        -4.88747
            4301               1         4.56297     625.161E-03        -4.56297    -625.161E-03
            4302               1         1.22316     792.083E-03        -1.22316     792.083E-03
            4303               1         4.57555     644.347E-03        -4.57555    -644.347E-03
            4304               1         1.38341     688.249E-03         1.38341    -688.249E-03
            4305               1         4.63007     527.124E-03         4.63007     527.124E-03
            4306               1     552.946E-03         5.16185    -552.946E-03        -5.16185
            4307               1         1.27392         1.17103         1.27392        -1.17103
            4308               1         1.36354     610.899E-03         1.36354    -610.899E-03
            4309               1         4.38845     486.802E-03         4.38845     486.802E-03
            4310               1     207.110E-03         6.18254    -207.110E-03        -6.18254
            4311               1     530.750E-03         2.69466    -530.750E-03        -2.69466
            4312               1     784.998E-03     318.529E-03     784.998E-03    -318.529E-03
            4313               1         2.47624         1.61686        -2.47624        -1.61686
            4314               1         2.74423     455.357E-03        -2.74423    -455.357E-03
            4315               1     570.999E-03         1.26886     570.999E-03        -1.26886
            4316               1         1.09556     314.790E-03        -1.09556     314.790E-03
            4317               1     368.654E-03         1.26138    -368.654E-03        -1.26138
            4318               1     585.157E-03         2.39264     585.157E-03         2.39264
            4319               1         4.25975     300.476E-03        -4.25975    -300.476E-03
            4320               1         1.30047     820.671E-03        -1.30047     820.671E-03
            4321               1         3.16038     287.845E-03         3.16038     287.845E-03
            4322               1     396.110E-03         1.87199    -396.110E-03        -1.87199
            4323               1         4.50648     274.886E-03        -4.50648     274.886E-03
            4324               1     583.452E-03     239.474E-03     583.452E-03     239.474E-03
            4325               1         1.20372     222.769E-03         1.20372    -222.769E-03
            4326               1     624.851E-03         4.84037     624.851E-03         4.84037
            4327               1         1.39698         1.33910         1.39698        -1.33910
            4328               1         1.42754     353.150E-03        -1.42754    -353.150E-03
            4329               1     695.582E-03     260.162E-03     695.582E-03    -260.162E-03
            4330               1     644.478E-03     143.894E-03    -644.478E-03    -143.894E-03
            4331               1     584.417E-03     171.857E-03     584.417E-03    -171.857E-03
            4332               1     63.1836E-03         4.89617    -63.1836E-03        -4.89617
            4333               1     7.04153E-03     260.590E-03    -7.04153E-03     260.590E-03
            4334               1     767.468E-03     326.553E-03     767.468E-03     326.553E-03
            4335               1     884.404E-03     119.885E-03     884.404E-03     119.885E-03
            4336               1     302.613E-03     434.006E-03    -302.613E-03    -434.006E-03
            4337               1         2.86067     198.750E-03         2.86067    -198.750E-03
            4338               1         1.22364     201.104E-03         1.22364    -201.104E-03
            4339               1         1.27847     811.739E-03         1.27847    -811.739E-03
            4340               1     519.982E-03     385.215E-03    -519.982E-03    -385.215E-03
            4341               1         1.08380     836.690E-03        -1.08380     836.690E-03
            4342               1         1.27005     378.289E-03         1.27005    -378.289E-03
            4343               1         1.34853     716.512E-03         1.34853    -716.512E-03
            4344               1     447.676E-03         2.68530    -447.676E-03        -2.68530
            4345               1     313.769E-03         4.28213    -313.769E-03        -4.28213
            4346               1     601.884E-03         4.95427     601.884E-03         4.95427
            4347               1     429.392E-03         3.51686    -429.392E-03        -3.51686
            4348               1         2.41533     567.708E-03         2.41533     567.708E-03
            4349               1     740.410E-03         1.23910     740.410E-03        -1.23910
            4350               1         1.23598     292.704E-03         1.23598    -292.704E-03
            4351               1     569.696E-03     290.866E-03    -569.696E-03    -290.866E-03
            4352               1         1.24215     299.205E-03         1.24215    -299.205E-03
            4353               1         1.28938     757.575E-03         1.28938    -757.575E-03
            4354               1         1.28094     461.671E-03         1.28094    -461.671E-03
            4355               1     364.395E-03         4.14656    -364.395E-03        -4.14656
            4356               1         1.36445     959.656E-03        -1.36445     959.656E-03
            4357               1         1.28431     785.331E-03        -1.28431     785.331E-03
            4358               1         1.31542     811.854E-03         1.31542    -811.854E-03
            4359               1         1.05709     844.615E-03         1.05709    -844.615E-03
            4360               1         3.31099     983.335E-03        -3.31099    -983.335E-03
            4361               1         1.36125     949.350E-03        -1.36125     949.350E-03
            4362               1         1.09358     332.329E-03        -1.09358    -332.329E-03
            4363               1     482.458E-03         1.30622     482.458E-03        -1.30622
            4364               1         1.31265     888.461E-03        -1.31265     888.461E-03
            4365               1     192.184E-03     832.184E-03     192.184E-03     832.184E-03
            4366               1         1.23514     743.119E-03        -1.23514     743.119E-03
            4367               1         1.77131         4.12821         1.77131        -4.12821
            4368               1         4.43771     54.6547E-03        -4.43771    -54.6547E-03
            4369               1         4.38060     327.494E-03        -4.38060    -327.494E-03
            4370               1         4.39010     191.635E-03         4.39010     191.635E-03
            4371               1         1.92447     925.546E-03        -1.92447     925.546E-03
            4372               1         1.69421     282.892E-03        -1.69421     282.892E-03
            4373               1     281.608E-03         2.69249    -281.608E-03        -2.69249
            4374               1         1.34273     673.265E-03         1.34273    -673.265E-03
            4375               1         2.15471     294.795E-03        -2.15471    -294.795E-03
            4376               1         1.30172     709.454E-03         1.30172    -709.454E-03
            4377               1         1.02853         1.15187        -1.02853         1.15187
            4378               1         1.25655     748.809E-03        -1.25655     748.809E-03
            4379               1         1.27182     373.929E-03         1.27182    -373.929E-03
            4380               1         1.14873     139.517E-03         1.14873    -139.517E-03
            4381               1     455.357E-03         2.74423    -455.357E-03        -2.74423
            4382               1         1.29376     445.575E-03         1.29376    -445.575E-03
            4383               1     394.281E-03     550.288E-03     394.281E-03     550.288E-03
            4384               1         1.08702     507.927E-03        -1.08702     507.927E-03
            4385               1         3.30804         3.29789        -3.30804        -3.29789
            4386               1         4.38440     327.610E-03        -4.38440    -327.610E-03
            4387               1     850.805E-03         1.34464    -850.805E-03         1.34464
            4388               1     584.779E-03     198.255E-03     584.779E-03    -198.255E-03
            4389               1     663.071E-03         4.52784    -663.071E-03        -4.52784
            4390               1         1.31288     507.248E-03         1.31288    -507.248E-03
            4391               1     662.605E-03         1.88609    -662.605E-03        -1.88609
            4392               1         4.36747     328.541E-03        -4.36747    -328.541E-03
            4393               1         1.35441     805.812E-03         1.35441    -805.812E-03
            4394               1     655.994E-03     271.016E-03    -655.994E-03    -271.016E-03
            4395               1     345.063E-03         1.26400     345.063E-03        -1.26400
            4396               1     891.707E-03         1.31775    -891.707E-03         1.31775
            4397               1     62.6953E-03     76.8364E-03    -62.6953E-03     76.8364E-03
            4398               1         1.30855     672.493E-03         1.30855    -672.493E-03
            4399               1     986.192E-03         1.14259    -986.192E-03         1.14259
            4400               1         1.34773     820.380E-03         1.34773    -820.380E-03
            4401               1     701.438E-03     173.611E-03     701.438E-03    -173.611E-03
            4402               1         1.26729     781.088E-03        -1.26729     781.088E-03
            4403               1         1.27600     782.277E-03        -1.27600     782.277E-03
            4404               1         2.57132         2.80782        -2.57132        -2.80782
            4405               1         1.02134     20.1592E-03         1.02134     20.1592E-03
            4406               1         1.29227     791.602E-03        -1.29227     791.602E-03
            4407               1     709.985E-03         1.21783     709.985E-03        -1.21783
            4408               1     60.5686E-03         4.85578    -60.5686E-03        -4.85578
            4409               1         1.22515     838.627E-03         1.22515    -838.627E-03
            4410               1         4.56083     241.587E-03         4.56083     241.587E-03
            4411               1         3.62364         1.22135        -3.62364         1.22135
            4412               1     618.017E-03         4.90711     618.017E-03         4.90711
            4413               1         4.45550     195.972E-03         4.45550     195.972E-03
            4414               1         1.35424     753.683E-03         1.35424    -753.683E-03
            4415               1         1.55243     382.459E-03        -1.55243    -382.459E-03
            4416               1     292.242E-03     687.589E-03     292.242E-03    -687.589E-03
            4417               1         1.25702     780.358E-03        -1.25702     780.358E-03
            4418               1         1.00354     359.947E-03         1.00354    -359.947E-03
            4419               1     63.3031E-03         2.70605     63.3031E-03        -2.70605
            4420               1         1.24468     283.118E-03         1.24468    -283.118E-03
            4421               1         4.38062     328.154E-03        -4.38062    -328.154E-03
            4422               1     240.309E-03     790.087E-03    -240.309E-03    -790.087E-03
            4423               1         1.09098     60.9185E-03         1.09098    -60.9185E-03
            4424               1     295.685E-03         2.10531    -295.685E-03        -2.10531
            4425               1         1.03392     99.8697E-03         1.03392    -99.8697E-03
            4426               1         1.35677     880.191E-03        -1.35677     880.191E-03
            4427               1         1.29317     439.376E-03         1.29317    -439.376E-03
            4428               1     793.528E-03         1.25094     793.528E-03        -1.25094
            4429               1         1.28475     571.222E-03         1.28475    -571.222E-03
            4430               1         3.11477         1.36865        -3.11477        -1.36865
            4431               1     313.545E-03     926.425E-03    -313.545E-03    -926.425E-03
            4432               1     744.259E-03     375.977E-03    -744.259E-03    -375.977E-03
            4433               1     91.7171E-03     64.5060E-03    -91.7171E-03    -64.5060E-03
            4434               1     395.969E-03         1.81912    -395.969E-03        -1.81912
            4435               1         1.25123     290.751E-03         1.25123    -290.751E-03
            4436               1         1.16285         1.68397        -1.16285        -1.68397
            4437               1     202.009E-03     82.9031E-03    -202.009E-03     82.9031E-03
            4438               1     942.613E-03     314.276E-03    -942.613E-03    -314.276E-03
            4439               1     814.906E-03         1.27148     814.906E-03        -1.27148
            4440               1     932.771E-03     103.554E-03     932.771E-03     103.554E-03
            4441               1     291.957E-03     785.775E-03    -291.957E-03    -785.775E-03
            4442               1     500.368E-03     318.238E-03    -500.368E-03    -318.238E-03
            4443               1     282.892E-03         1.69421     282.892E-03        -1.69421
            4444               1     843.363E-03         1.28235    -843.363E-03         1.28235
            4445               1         1.34814         1.10178        -1.34814        -1.10178
            4446               1     68.4656E-03         1.05958     68.4656E-03         1.05958
            4447               1         3.93488         1.11737        -3.93488         1.11737
            4448               1     418.829E-03     683.236E-03     418.829E-03     683.236E-03
            4449               1         1.37311     276.197E-03         1.37311     276.197E-03
            4450               1     813.501E-03     210.340E-03     813.501E-03    -210.340E-03
            4451               1         1.23342         1.07854        -1.23342        -1.07854
            4452               1         1.33947     828.759E-03         1.33947    -828.759E-03
            4453               1         2.62093         1.37689         2.62093        -1.37689
            4454               1         1.24434     778.600E-03        -1.24434     778.600E-03
            4455               1     36.0801E-03     16.3592E-03     36.0801E-03     16.3592E-03
            4456               1     302.627E-03     104.447E-03    -302.627E-03    -104.447E-03
            4457               1     486.802E-03         4.38845     486.802E-03         4.38845
            4458               1         1.04823     971.574E-03        -1.04823     971.574E-03
            4459               1     200.362E-03         1.11658     200.362E-03        -1.11658
            4460               1     508.435E-03         4.51988     508.435E-03         4.51988
            4461               1     839.311E-03         1.34463    -839.311E-03         1.34463
            4462               1     665.895E-03         1.21123     665.895E-03        -1.21123
            4463               1     828.631E-03         1.33720    -828.631E-03         1.33720
            4464               1         3.76643     862.744E-03        -3.76643    -862.744E-03
            4465               1         1.72224         4.02577        -1.72224        -4.02577
            4466               1         1.02981         1.03583        -1.02981         1.03583
            4467               1     812.709E-03         1.27126    -812.709E-03         1.27126
            4468               1         2.67418     41.9474E-03        -2.67418     41.9474E-03
            4469               1     980.187E-03         1.15505    -980.187E-03         1.15505
            4470               1         4.50954     199.151E-03         4.50954     199.151E-03
            4471               1         2.63242     417.711E-03        -2.63242     417.711E-03
            4472               1         4.54893     203.433E-03         4.54893     203.433E-03
            4473               1         1.26862     830.750E-03        -1.26862     830.750E-03
            4474               1     191.635E-03         4.39010     191.635E-03         4.39010
            4475               1         1.12649         3.89999         1.12649        -3.89999
            4476               1     248.330E-03         2.71705    -248.330E-03        -2.71705
            4477               1     981.770E-03         2.53747    -981.770E-03        -2.53747
            4478               1         4.42613     259.968E-03         4.42613     259.968E-03
            4479               1         1.30329     803.463E-03         1.30329    -803.463E-03
            4480               1         3.07211     190.751E-03         3.07211    -190.751E-03
            4481               1         1.43442     911.297E-03        -1.43442     911.297E-03
            4482               1         1.22937     774.484E-03        -1.22937     774.484E-03
            4483               1     146.111E-03     776.100E-03    -146.111E-03    -776.100E-03
            4484               1     637.789E-03     126.167E-03     637.789E-03    -126.167E-03
            4485               1     751.990E-03         1.23574     751.990E-03        -1.23574
            4486               1     841.738E-03     355.476E-03     841.738E-03     355.476E-03
            4487               1     745.299E-03     350.795E-03     745.299E-03     350.795E-03
            4488               1         2.69654     693.414E-03         2.69654    -693.414E-03
            4489               1     67.5658E-03     6.91392E-03    -67.5658E-03     6.91392E-03
            4490               1         1.28785     816.721E-03         1.28785    -816.721E-03
            4491               1     747.929E-03         1.18879     747.929E-03        -1.18879
            4492               1         1.21073     946.123E-03         1.21073    -946.123E-03
            4493               1     417.069E-03     691.591E-03     417.069E-03     691.591E-03
            4494               1     476.791E-03     575.543E-03    -476.791E-03    -575.543E-03
            4495               1     312.038E-03         3.29183    -312.038E-03        -3.29183
            4496               1         1.39920     476.701E-03        -1.39920    -476.701E-03
            4497               1     373.825E-03     533.684E-03    -373.825E-03    -533.684E-03
            4498               1         3.46333     83.8018E-03         3.46333     83.8018E-03
            4499               1     675.456E-03         4.55758    -675.456E-03        -4.55758
            4500               1     712.799E-03         1.18989     712.799E-03        -1.18989
            4501               1     58.4650E-03         3.52546    -58.4650E-03        -3.52546
            4502               1     885.293E-03     60.0404E-03     885.293E-03     60.0404E-03
            4503               1         1.26159     619.919E-03         1.26159    -619.919E-03
            4504               1         4.05568     154.371E-03         4.05568    -154.371E-03
            4505               1         4.35687     327.763E-03        -4.35687    -327.763E-03
            4506               1         1.31413     573.639E-03         1.31413    -573.639E-03
            4507               1         2.51341     3.48378E-03         2.51341     3.48378E-03
            4508               1         2.77073     18.9884E-03         2.77073     18.9884E-03
            4509               1         1.15550     145.234E-03         1.15550    -145.234E-03
            4510               1         1.31378     627.041E-03         1.31378    -627.041E-03
            4511               1         1.00845         1.10546        -1.00845         1.10546
            4512               1     169.991E-03         1.26287    -169.991E-03        -1.26287
            4513               1         1.65761     21.7826E-03         1.65761     21.7826E-03
            4514               1         1.26287     169.991E-03        -1.26287    -169.991E-03
            4515               1         1.13439     752.100E-03        -1.13439     752.100E-03
            4516               1         3.98154     139.156E-03         3.98154     139.156E-03
            4517               1         4.10747     153.668E-03         4.10747     153.668E-03
            4518               1     897.576E-03     990.228E-03    -897.576E-03    -990.228E-03
            4519               1         2.58018         1.91955        -2.58018         1.91955
            4520               1         1.30309     602.354E-03         1.30309    -602.354E-03
            4521               1         4.03019     20.3328E-03        -4.03019     20.3328E-03
            4522               1     11.0858E-03         1.17423    -11.0858E-03         1.17423
            4523               1     854.658E-03         3.79352    -854.658E-03        -3.79352
            4524               1         1.24307     822.517E-03        -1.24307     822.517E-03
            4525               1     231.012E-03         4.57696     231.012E-03         4.57696
            4526               1     659.949E-03     504.709E-03     659.949E-03     504.709E-03
            4527               1         1.35620     6.40929E-03        -1.35620     6.40929E-03
            4528               1         3.83636     508.210E-03         3.83636    -508.210E-03
            4529               1     588.133E-03         1.22889     588.133E-03        -1.22889
            4530               1         1.19894     758.051E-03        -1.19894     758.051E-03
            4531               1     756.566E-03         1.26494     756.566E-03        -1.26494
            4532               1         1.28655     789.215E-03         1.28655    -789.215E-03
            4533               1     832.716E-03         1.27226    -832.716E-03         1.27226
            4534               1         1.20759     751.047E-03        -1.20759     751.047E-03
            4535               1     883.611E-03         1.32862    -883.611E-03         1.32862
            4536               1     328.279E-03     236.030E-03    -328.279E-03    -236.030E-03
            4537               1     550.288E-03     394.281E-03     550.288E-03     394.281E-03
            4538               1         1.94519     778.824E-03        -1.94519     778.824E-03
            4539               1         1.25240     709.192E-03         1.25240    -709.192E-03
            4540               1         1.21340     767.408E-03        -1.21340     767.408E-03
            4541               1         4.53209     249.624E-03         4.53209     249.624E-03
            4542               1     93.1023E-03     147.473E-03     93.1023E-03     147.473E-03
            4543               1         4.04942     23.5077E-03        -4.04942     23.5077E-03
            4544               1         4.28213     313.769E-03        -4.28213    -313.769E-03
            4545               1     921.681E-03     197.762E-03     921.681E-03     197.762E-03
            4546               1     13.3770E-03         1.99504     13.3770E-03         1.99504
            4547               1     86.1802E-03     102.692E-03    -86.1802E-03    -102.692E-03
            4548               1         1.29828     802.651E-03        -1.29828     802.651E-03
            4549               1         4.31130     321.252E-03        -4.31130    -321.252E-03
            4550               1         1.23749     772.223E-03         1.23749    -772.223E-03
            4551               1     170.054E-03     663.138E-03    -170.054E-03    -663.138E-03
            4552               1         1.49899         1.02399        -1.49899         1.02399
            4553               1     108.093E-03         1.71811     108.093E-03        -1.71811
            4554               1         1.47194     544.149E-03        -1.47194    -544.149E-03
            4555               1     435.879E-03         3.57325    -435.879E-03        -3.57325
            4556               1         1.11753     197.537E-03        -1.11753     197.537E-03
            4557               1         1.31361     852.600E-03         1.31361    -852.600E-03
            4558               1         3.24175     75.9853E-03         3.24175     75.9853E-03
            4559               1     473.266E-03         1.09705    -473.266E-03        -1.09705
            4560               1     841.697E-03     129.932E-03     841.697E-03    -129.932E-03
            4561               1         3.57685         1.08077        -3.57685         1.08077
            4562               1     669.806E-03     500.056E-03     669.806E-03     500.056E-03
            4563               1         3.23593         3.27341        -3.23593        -3.27341
            4564               1         1.19826         2.23057        -1.19826        -2.23057
            4565               1     370.397E-03         1.26805    -370.397E-03        -1.26805
            4566               1     310.261E-03         1.19938    -310.261E-03         1.19938
            4567               1         1.22305     811.532E-03        -1.22305     811.532E-03
            4568               1     593.446E-03         1.08876     593.446E-03        -1.08876
            4569               1         1.08876     593.446E-03        -1.08876     593.446E-03
            4570               1     981.990E-03     192.110E-03     981.990E-03    -192.110E-03
            4571               1     662.687E-03         2.02131     662.687E-03        -2.02131
            4572               1         1.23747     680.592E-03        -1.23747     680.592E-03
            4573               1     422.790E-03     130.301E-03     422.790E-03     130.301E-03
            4574               1     121.045E-03     405.043E-03    -121.045E-03    -405.043E-03
            4575               1     271.555E-03         1.38590     271.555E-03         1.38590
            4576               1     571.048E-03     250.580E-03    -571.048E-03     250.580E-03
            4577               1     236.929E-03         4.57016     236.929E-03         4.57016
            4578               1     812.232E-03     774.453E-03    -812.232E-03    -774.453E-03
            4579               1     452.919E-03         1.93388     452.919E-03        -1.93388
            4580               1         3.96232     151.637E-03         3.96232    -151.637E-03
            4581               1     476.701E-03         1.39920    -476.701E-03        -1.39920
            4582               1         1.57181     898.316E-03        -1.57181     898.316E-03
            4583               1     757.523E-03     358.545E-03     757.523E-03     358.545E-03
            4584               1         2.45206     668.261E-03        -2.45206    -668.261E-03
            4585               1         1.23366     779.017E-03        -1.23366     779.017E-03
            4586               1     461.938E-03         3.67616    -461.938E-03         3.67616
            4587               1         1.21401     836.299E-03         1.21401    -836.299E-03
            4588               1     877.046E-03     266.170E-03     877.046E-03     266.170E-03
            4589               1     39.1093E-03     142.035E-03     39.1093E-03     142.035E-03
            4590               1     269.009E-03     280.131E-03    -269.009E-03    -280.131E-03
            4591               1         1.32357     803.882E-03         1.32357    -803.882E-03
            4592               1     884.257E-03         1.44010     884.257E-03        -1.44010
            4593               1         1.80618     393.800E-03        -1.80618     393.800E-03
            4594               1     326.311E-03         4.21245    -326.311E-03        -4.21245
            4595               1         4.04311     102.547E-03         4.04311    -102.547E-03
            4596               1         3.99581     35.5460E-03        -3.99581     35.5460E-03
            4597               1         1.30166     142.350E-03        -1.30166     142.350E-03
            4598               1     710.077E-03     363.571E-03    -710.077E-03    -363.571E-03
            4599               1     218.962E-03     382.073E-03     218.962E-03    -382.073E-03
            4600               1         1.21173     855.820E-03         1.21173    -855.820E-03
            4601               1         1.28588     565.196E-03         1.28588    -565.196E-03
            4602               1         1.06115         1.10999        -1.06115         1.10999
            4603               1         1.30565     843.985E-03        -1.30565     843.985E-03
            4604               1     432.739E-03         1.25848     432.739E-03        -1.25848
            4605               1     391.998E-03     630.989E-03     391.998E-03     630.989E-03
            4606               1     758.484E-03         1.18840    -758.484E-03         1.18840
            4607               1     916.919E-03         1.43973     916.919E-03        -1.43973
            4608               1     430.126E-03         2.48889    -430.126E-03         2.48889
            4609               1     472.654E-03         1.08460    -472.654E-03        -1.08460
            4610               1         1.26084     716.419E-03         1.26084    -716.419E-03
            4611               1         1.14816     848.449E-03         1.14816    -848.449E-03
            4612               1     983.512E-03         1.21196    -983.512E-03         1.21196
            4613               1         4.11986     160.680E-03         4.11986    -160.680E-03
            4614               1         1.24304     746.355E-03         1.24304    -746.355E-03
            4615               1     484.821E-03     87.0778E-03     484.821E-03    -87.0778E-03
            4616               1     174.487E-03         4.22239     174.487E-03         4.22239
            4617               1     324.248E-03         1.88821    -324.248E-03        -1.88821
            4618               1     682.931E-03     517.075E-03     682.931E-03     517.075E-03
            4619               1     428.622E-03     374.638E-03    -428.622E-03    -374.638E-03
            4620               1         1.44109     483.493E-03         1.44109     483.493E-03
            4621               1     153.541E-03     507.419E-03    -153.541E-03    -507.419E-03
            4622               1         1.13330         4.09324         1.13330        -4.09324
            4623               1     818.749E-03     935.270E-03    -818.749E-03     935.270E-03
            4624               1         1.26527     662.124E-03         1.26527    -662.124E-03
            4625               1     200.023E-03         3.01890     200.023E-03        -3.01890
            4626               1     314.570E-03         4.21806    -314.570E-03        -4.21806
            4627               1         3.46723     895.624E-03         3.46723    -895.624E-03
            4628               1     910.576E-03         1.10752    -910.576E-03         1.10752
            4629               1         1.07349     770.645E-03        -1.07349     770.645E-03
            4630               1     265.929E-03     223.513E-03    -265.929E-03    -223.513E-03
            4631               1         1.24066     73.9908E-03         1.24066    -73.9908E-03
            4632               1         3.49745     467.151E-03        -3.49745     467.151E-03
            4633               1         1.28235     843.363E-03         1.28235    -843.363E-03
            4634               1         1.27748     590.008E-03         1.27748    -590.008E-03
            4635               1     318.282E-03     474.320E-03    -318.282E-03    -474.320E-03
            4636               1     60.0404E-03     885.293E-03     60.0404E-03     885.293E-03
            4637               1         1.18272     826.594E-03        -1.18272     826.594E-03
            4638               1     343.580E-03         1.68112    -343.580E-03        -1.68112
            4639               1     274.615E-03         2.38166    -274.615E-03        -2.38166
            4640               1         1.12656     970.323E-03        -1.12656     970.323E-03
            4641               1     359.950E-03         1.63729    -359.950E-03        -1.63729
            4642               1     793.098E-03         1.25580     793.098E-03        -1.25580
            4643               1     44.1166E-03     571.965E-03    -44.1166E-03     571.965E-03
            4644               1     277.331E-03         2.74286    -277.331E-03        -2.74286
            4645               1     203.491E-03     645.736E-03    -203.491E-03    -645.736E-03
            4646               1     274.543E-03     608.478E-03     274.543E-03    -608.478E-03
            4647               1     769.387E-03         1.29435     769.387E-03        -1.29435
            4648               1         1.79314     700.437E-03        -1.79314    -700.437E-03
            4649               1     552.432E-03         1.07708    -552.432E-03        -1.07708
            4650               1     522.046E-03         1.27513    -522.046E-03        -1.27513
            4651               1         1.23297     774.319E-03        -1.23297     774.319E-03
            4652               1     186.146E-03         1.56973     186.146E-03        -1.56973
            4653               1     290.664E-03         4.01583     290.664E-03        -4.01583
            4654               1     357.932E-03     631.456E-03    -357.932E-03    -631.456E-03
            4655               1         1.38062         3.10936        -1.38062        -3.10936
            4656               1         1.11625     840.052E-03        -1.11625     840.052E-03
            4657               1     280.104E-03         3.98707     280.104E-03        -3.98707
            4658               1         1.27736     605.251E-03         1.27736    -605.251E-03
            4659               1         1.09742     903.175E-03        -1.09742     903.175E-03
            4660               1         1.21515     833.637E-03         1.21515    -833.637E-03
            4661               1         4.13073     107.266E-03         4.13073    -107.266E-03
            4662               1     857.270E-03         1.30267    -857.270E-03         1.30267
            4663               1     944.300E-03         1.17641    -944.300E-03         1.17641
            4664               1     440.802E-03     685.664E-03    -440.802E-03    -685.664E-03
            4665               1     819.773E-03         1.22312     819.773E-03        -1.22312
            4666               1         1.28929     828.039E-03         1.28929    -828.039E-03
            4667               1     327.763E-03         4.35687    -327.763E-03        -4.35687
            4668               1         3.06962     201.971E-03        -3.06962     201.971E-03
            4669               1     220.791E-03     201.201E-03     220.791E-03    -201.201E-03
            4670               1         1.44402     184.584E-03        -1.44402    -184.584E-03
            4671               1     300.476E-03         4.25975    -300.476E-03        -4.25975
            4672               1     882.391E-03         1.37806     882.391E-03        -1.37806
            4673               1         1.32374     833.848E-03         1.32374    -833.848E-03
            4674               1         1.20256     310.764E-03         1.20256    -310.764E-03
            4675               1         1.26152     824.938E-03        -1.26152     824.938E-03
            4676               1     923.039E-03         1.59988     923.039E-03        -1.59988
            4677               1         1.04830         1.33192        -1.04830        -1.33192
            4678               1     425.941E-03     911.986E-03    -425.941E-03    -911.986E-03
            4679               1         1.85599     264.989E-03        -1.85599    -264.989E-03
            4680               1     911.986E-03     425.941E-03    -911.986E-03    -425.941E-03
            4681               1         1.23878     215.173E-03         1.23878    -215.173E-03
            4682               1         1.13607     991.448E-03        -1.13607     991.448E-03
            4683               1         1.34078     677.623E-03         1.34078    -677.623E-03
            4684               1         3.90825     158.848E-03         3.90825    -158.848E-03
            4685               1     739.323E-03         1.14462     739.323E-03        -1.14462
            4686               1     701.237E-03         1.16742     701.237E-03        -1.16742
            4687               1         1.23095     806.831E-03        -1.23095     806.831E-03
            4688               1         1.17624     805.015E-03        -1.17624     805.015E-03
            4689               1         3.73628     379.932E-03        -3.73628     379.932E-03
            4690               1         3.29189     815.762E-03         3.29189    -815.762E-03
            4691               1     179.081E-03     143.396E-03     179.081E-03     143.396E-03
            4692               1         1.69616         1.06051        -1.69616         1.06051
            4693               1     14.1425E-03         1.12250    -14.1425E-03         1.12250
            4694               1     287.765E-03         1.07769    -287.765E-03         1.07769
            4695               1     414.694E-03         1.50295    -414.694E-03        -1.50295
            4696               1     785.170E-03         1.20163     785.170E-03        -1.20163
            4697               1     829.380E-03         1.28132     829.380E-03        -1.28132
            4698               1         1.23173         3.58355         1.23173        -3.58355
            4699               1         3.06311     173.452E-03         3.06311    -173.452E-03
            4700               1     515.702E-03         1.25317     515.702E-03        -1.25317
            4701               1         1.30707     714.732E-03         1.30707    -714.732E-03
            4702               1     752.100E-03         1.13439     752.100E-03        -1.13439
            4703               1     545.861E-03     44.6178E-03     545.861E-03     44.6178E-03
            4704               1         1.22880     773.132E-03        -1.22880     773.132E-03
            4705               1         1.36733     802.804E-03         1.36733    -802.804E-03
            4706               1         1.30332     871.593E-03         1.30332    -871.593E-03
            4707               1         1.23764         3.19302         1.23764        -3.19302
            4708               1         2.82996     805.876E-03        -2.82996    -805.876E-03
            4709               1         1.56833     116.085E-03        -1.56833    -116.085E-03
            4710               1     34.5233E-03         1.21359    -34.5233E-03         1.21359
            4711               1     434.577E-03     632.313E-03     434.577E-03     632.313E-03
            4712               1     438.097E-03     221.206E-03     438.097E-03    -221.206E-03
            4713               1     44.1855E-03         2.69187     44.1855E-03        -2.69187
            4714               1         3.89564     12.2093E-03        -3.89564     12.2093E-03
            4715               1         1.17474         1.03430         1.17474        -1.03430
            4716               1         1.84863     326.201E-03         1.84863    -326.201E-03
            4717               1     886.538E-03         1.16962    -886.538E-03         1.16962
            4718               1         1.18829     980.447E-03         1.18829    -980.447E-03
            4719               1         4.03838     125.073E-03         4.03838    -125.073E-03
            4720               1     958.151E-03     153.806E-03     958.151E-03     153.806E-03
            4721               1         1.27428     250.130E-03        -1.27428     250.130E-03
            4722               1         1.28657     768.143E-03         1.28657    -768.143E-03
            4723               1         1.13566     874.262E-03         1.13566    -874.262E-03
            4724               1         1.39219     900.903E-03        -1.39219     900.903E-03
            4725               1     476.688E-03         1.22205     476.688E-03        -1.22205
            4726               1     47.3045E-03         1.47449    -47.3045E-03        -1.47449
            4727               1         1.31746     527.112E-03         1.31746    -527.112E-03
            4728               1         1.42051         1.53592        -1.42051        -1.53592
            4729               1     194.238E-03     987.306E-03    -194.238E-03     987.306E-03
            4730               1     193.664E-03         3.15110    -193.664E-03        -3.15110
            4731               1     568.368E-03     476.146E-03    -568.368E-03    -476.146E-03
            4732               1         1.21803     761.165E-03        -1.21803     761.165E-03
            4733               1         1.00468         2.32350        -1.00468        -2.32350
            4734               1         1.76051     684.919E-03        -1.76051     684.919E-03
            4735               1         3.26146     798.551E-03         3.26146    -798.551E-03
            4736               1     836.215E-03         1.26899     836.215E-03        -1.26899
            4737               1         1.15268     791.196E-03        -1.15268     791.196E-03
            4738               1         1.94296         1.06818        -1.94296        -1.06818
            4739               1     557.846E-03     939.712E-03     557.846E-03     939.712E-03
            4740               1         1.11759     825.230E-03        -1.11759     825.230E-03
            4741               1         1.19665     877.069E-03        -1.19665    -877.069E-03
            4742               1     980.447E-03         1.18829    -980.447E-03         1.18829
            4743               1         3.94291     83.6594E-03        -3.94291     83.6594E-03
            4744               1         1.01767         1.15391        -1.01767         1.15391
            4745               1     485.103E-03         3.36542     485.103E-03        -3.36542
            4746               1     245.500E-03         4.54860     245.500E-03         4.54860
            4747               1         1.13559     776.039E-03        -1.13559     776.039E-03
            4748               1     946.939E-03         1.27909    -946.939E-03         1.27909
            4749               1     325.583E-03         4.33719    -325.583E-03        -4.33719
            4750               1         3.59288     170.955E-03         3.59288    -170.955E-03
            4751               1     243.978E-03         1.58895     243.978E-03        -1.58895
            4752               1         3.88854     3.07443E-03        -3.88854     3.07443E-03
            4753               1         3.06033     446.436E-03         3.06033    -446.436E-03
            4754               1     70.2235E-03     348.788E-03    -70.2235E-03    -348.788E-03
            4755               1     863.349E-03         1.22399    -863.349E-03         1.22399
            4756               1     188.567E-03         1.94450    -188.567E-03        -1.94450
            4757               1     702.978E-03     489.503E-03     702.978E-03     489.503E-03
            4758               1         1.40364     257.282E-03        -1.40364     257.282E-03
            4759               1         3.72509     167.927E-03         3.72509    -167.927E-03
            4760               1     259.968E-03         4.42613     259.968E-03         4.42613
            4761               1     831.418E-03         1.26293    -831.418E-03         1.26293
            4762               1     836.267E-03     143.821E-03     836.267E-03    -143.821E-03
            4763               1     588.695E-03     333.395E-03    -588.695E-03    -333.395E-03
            4764               1         1.63183     119.242E-03         1.63183    -119.242E-03
            4765               1     839.067E-03     240.356E-03     839.067E-03     240.356E-03
            4766               1         1.28350     538.101E-03         1.28350    -538.101E-03
            4767               1         3.85468     985.435E-03        -3.85468     985.435E-03
            4768               1     912.340E-03         1.30761    -912.340E-03         1.30761
            4769               1     195.398E-03         4.33518    -195.398E-03        -4.33518
            4770               1     74.2855E-03     165.203E-03     74.2855E-03    -165.203E-03
            4771               1         1.15210     964.293E-03        -1.15210     964.293E-03
            4772               1         1.28265     865.281E-03         1.28265    -865.281E-03
            4773               1         1.24534     375.601E-03         1.24534    -375.601E-03
            4774               1     249.624E-03         4.53209     249.624E-03         4.53209
            4775               1     363.795E-03         2.28536     363.795E-03        -2.28536
            4776               1         4.21260     151.214E-03         4.21260    -151.214E-03
            4777               1         1.11407     191.077E-03         1.11407    -191.077E-03
            4778               1         2.39365     130.288E-03        -2.39365     130.288E-03
            4779               1         1.18587     450.868E-03         1.18587     450.868E-03
            4780               1         1.91304     750.344E-03        -1.91304     750.344E-03
            4781               1     116.204E-03         1.99298    -116.204E-03        -1.99298
            4782               1     837.112E-03         1.30575     837.112E-03        -1.30575
            4783               1     431.223E-03         1.91006     431.223E-03        -1.91006
            4784               1     339.350E-03         4.28134    -339.350E-03        -4.28134
            4785               1     763.185E-03         1.12982     763.185E-03        -1.12982
            4786               1     847.709E-03         1.24138    -847.709E-03         1.24138
            4787               1     188.945E-03     104.977E-03     188.945E-03    -104.977E-03
            4788               1         1.27909     946.939E-03         1.27909    -946.939E-03
            4789               1     251.979E-03         2.77178    -251.979E-03        -2.77178
            4790               1         1.33370     848.432E-03        -1.33370     848.432E-03
            4791               1         4.05653     22.9501E-03        -4.05653     22.9501E-03
            4792               1     212.435E-03         1.55913    -212.435E-03        -1.55913
            4793               1     804.156E-03         1.26254     804.156E-03        -1.26254
            4794               1         1.22312     819.773E-03        -1.22312     819.773E-03
            4795               1     855.539E-03         1.25589    -855.539E-03         1.25589
            4796               1     886.535E-03         1.32133    -886.535E-03         1.32133
            4797               1     932.996E-03         1.32051    -932.996E-03         1.32051
            4798               1         1.14976     778.289E-03        -1.14976     778.289E-03
            4799               1         1.21246     803.822E-03        -1.21246     803.822E-03
            4800               1         1.17892     407.811E-03         1.17892    -407.811E-03
            4801               1         1.29375         1.19936         1.29375        -1.19936
            4802               1         1.30039     861.923E-03         1.30039    -861.923E-03
            4803               1         4.20214     164.013E-03         4.20214    -164.013E-03
            4804               1         2.48715     409.328E-03         2.48715    -409.328E-03
            4805               1     257.282E-03         1.40364     257.282E-03        -1.40364
            4806               1     186.774E-03         1.98959    -186.774E-03        -1.98959
            4807               1     967.400E-03         1.44477     967.400E-03        -1.44477
            4808               1     514.134E-03     187.421E-03     514.134E-03     187.421E-03
            4809               1         2.32687         1.01200        -2.32687        -1.01200
            4810               1         1.26753     371.020E-03         1.26753    -371.020E-03
            4811               1         3.25282     165.357E-03         3.25282    -165.357E-03
            4812               1     83.6594E-03         3.94291     83.6594E-03        -3.94291
            4813               1     253.955E-03     319.229E-03    -253.955E-03    -319.229E-03
            4814               1     533.846E-03     12.5040E-03     533.846E-03    -12.5040E-03
            4815               1     804.871E-03         1.16064     804.871E-03        -1.16064
            4816               1         1.22673     845.145E-03         1.22673    -845.145E-03
            4817               1     902.190E-03         1.24688    -902.190E-03         1.24688
            4818               1     31.3373E-03         2.76872     31.3373E-03         2.76872
            4819               1         1.26465     345.407E-03        -1.26465     345.407E-03
            4820               1     509.358E-03     322.999E-03    -509.358E-03    -322.999E-03
            4821               1     788.545E-03     133.210E-03     788.545E-03    -133.210E-03
            4822               1         3.66380     438.302E-03         3.66380    -438.302E-03
            4823               1         1.93373     150.290E-03         1.93373    -150.290E-03
            4824               1         1.61495     505.844E-03        -1.61495    -505.844E-03
            4825               1     25.3949E-03         3.90595     25.3949E-03        -3.90595
            4826               1     445.644E-03     849.164E-03    -445.644E-03    -849.164E-03
            4827               1         1.06351     781.451E-03        -1.06351     781.451E-03
            4828               1         1.26265     509.693E-03         1.26265    -509.693E-03
            4829               1     555.710E-03     50.4649E-03     555.710E-03    -50.4649E-03
            4830               1     427.089E-03         1.38733     427.089E-03        -1.38733
            4831               1     495.384E-03     253.853E-03     495.384E-03    -253.853E-03
            4832               1         1.19096         1.72317        -1.19096        -1.72317
            4833               1         1.38590     271.555E-03         1.38590     271.555E-03
            4834               1     508.210E-03         3.83636    -508.210E-03         3.83636
            4835               1     585.965E-03     319.078E-03    -585.965E-03    -319.078E-03
            4836               1     351.153E-03     611.375E-03    -351.153E-03    -611.375E-03
            4837               1     560.474E-03     629.217E-03    -560.474E-03    -629.217E-03
            4838               1         1.65412     292.284E-03        -1.65412    -292.284E-03
            4839               1         1.22527     31.4618E-03         1.22527     31.4618E-03
            4840               1     48.5543E-03         2.38362    -48.5543E-03        -2.38362
            4841               1     45.7889E-03         3.92095     45.7889E-03        -3.92095
            4842               1     164.970E-03         1.78623    -164.970E-03        -1.78623
            4843               1         1.55913     212.435E-03        -1.55913    -212.435E-03
            4844               1         1.58911     277.386E-03         1.58911    -277.386E-03
            4845               1     342.857E-03         1.40127     342.857E-03        -1.40127
            4846               1     399.891E-03         1.00681     399.891E-03        -1.00681
            4847               1     559.067E-03         4.02444     559.067E-03        -4.02444
            4848               1     731.069E-03         1.83211     731.069E-03        -1.83211
            4849               1         3.33387     449.373E-03         3.33387    -449.373E-03
            4850               1         1.29755     879.292E-03        -1.29755     879.292E-03
            4851               1     22.0500E-03         4.05129     22.0500E-03        -4.05129
            4852               1         1.23064     893.835E-03         1.23064    -893.835E-03
            4853               1         1.06571     807.872E-03         1.06571    -807.872E-03
            4854               1     871.642E-03         2.09253    -871.642E-03        -2.09253
            4855               1     3.07443E-03         3.88854     3.07443E-03        -3.88854
            4856               1     381.720E-03         3.72980     381.720E-03        -3.72980
            4857               1         1.17011     984.804E-03         1.17011    -984.804E-03
            4858               1     33.6003E-03     49.3853E-03    -33.6003E-03     49.3853E-03
            4859               1         3.15526         1.35332         3.15526        -1.35332
            4860               1     939.712E-03     557.846E-03     939.712E-03     557.846E-03
            4861               1     630.398E-03     282.951E-03     630.398E-03     282.951E-03
            4862               1         1.17354     864.609E-03         1.17354    -864.609E-03
            4863               1     536.841E-03     793.619E-03    -536.841E-03     793.619E-03
            4864               1     741.293E-03         1.13621     741.293E-03        -1.13621
            4865               1     465.305E-03         3.35680    -465.305E-03         3.35680
            4866               1         1.25353     317.255E-03         1.25353    -317.255E-03
            4867               1     344.701E-03         1.39777     344.701E-03        -1.39777
            4868               1         2.69171     416.999E-03         2.69171    -416.999E-03
            4869               1         1.45050     932.555E-03        -1.45050     932.555E-03
            4870               1         3.57983     339.228E-03        -3.57983     339.228E-03
            4871               1     773.903E-03         1.30917     773.903E-03        -1.30917
            4872               1     433.019E-03         3.61611     433.019E-03        -3.61611
            4873               1         3.73087     378.389E-03        -3.73087     378.389E-03
            4874               1     969.791E-03     746.158E-03    -969.791E-03    -746.158E-03
            4875               1         1.26038     588.179E-03         1.26038    -588.179E-03
            4876               1     463.753E-03         1.28377    -463.753E-03         1.28377
            4877               1         3.54017     335.129E-03        -3.54017     335.129E-03
            4878               1         3.60435     429.118E-03        -3.60435     429.118E-03
            4879               1     912.038E-03         1.16536    -912.038E-03         1.16536
            4880               1     451.306E-03     330.136E-03     451.306E-03    -330.136E-03
            4881               1     302.486E-03     251.987E-03    -302.486E-03    -251.987E-03
            4882               1     985.435E-03         3.85468     985.435E-03        -3.85468
            4883               1     713.953E-03     127.050E-03     713.953E-03    -127.050E-03
            4884               1         1.15317     858.836E-03         1.15317    -858.836E-03
            4885               1     431.828E-03     618.117E-03    -431.828E-03    -618.117E-03
            4886               1         3.69489     443.771E-03         3.69489    -443.771E-03
            4887               1         3.54634     343.159E-03        -3.54634     343.159E-03
            4888               1     367.898E-03         1.77834     367.898E-03        -1.77834
            4889               1         3.54800     784.827E-03        -3.54800     784.827E-03
            4890               1     483.759E-03         3.31380     483.759E-03        -3.31380
            4891               1     734.657E-03     132.624E-03     734.657E-03    -132.624E-03
            4892               1         1.03764     830.249E-03         1.03764    -830.249E-03
            4893               1         1.00077         3.84029         1.00077        -3.84029
            4894               1     655.501E-03         1.49376    -655.501E-03        -1.49376
            4895               1     83.5141E-03         1.13039    -83.5141E-03         1.13039
            4896               1     966.152E-03     33.6911E-03     966.152E-03     33.6911E-03
            4897               1         3.73903     460.410E-03         3.73903    -460.410E-03
            4898               1         1.14372     846.455E-03         1.14372    -846.455E-03
            4899               1     367.772E-03     231.666E-03     367.772E-03    -231.666E-03
            4900               1     11.8262E-03         2.14593     11.8262E-03        -2.14593
            4901               1     883.148E-03     88.2858E-03     883.148E-03    -88.2858E-03
            4902               1         1.85845     849.391E-03        -1.85845    -849.391E-03
            4903               1         1.47588     938.053E-03        -1.47588     938.053E-03
            4904               1     80.5728E-03     533.694E-03    -80.5728E-03    -533.694E-03
            4905               1         1.57860     107.023E-03        -1.57860    -107.023E-03
            4906               1     861.054E-03         1.31280     861.054E-03        -1.31280
            4907               1         1.00107     184.354E-03         1.00107     184.354E-03
            4908               1         1.23412     364.608E-03         1.23412    -364.608E-03
            4909               1     101.015E-03         1.91924    -101.015E-03        -1.91924
            4910               1     156.361E-03         3.57956    -156.361E-03         3.57956
            4911               1     442.420E-03         2.88824    -442.420E-03         2.88824
            4912               1     308.259E-03         1.24608    -308.259E-03         1.24608
            4913               1     260.268E-03     877.060E-03     260.268E-03     877.060E-03
            4914               1     68.5463E-03         1.42982     68.5463E-03        -1.42982
            4915               1     779.891E-03         1.10205     779.891E-03        -1.10205
            4916               1     388.946E-03         3.73615     388.946E-03        -3.73615
            4917               1     605.265E-03         1.72057    -605.265E-03        -1.72057
            4918               1     507.641E-03         1.36880     507.641E-03        -1.36880
            4919               1     206.141E-03         1.22805    -206.141E-03         1.22805
            4920               1         1.29435     769.387E-03        -1.29435     769.387E-03
            4921               1     47.8176E-03     873.163E-03     47.8176E-03     873.163E-03
            4922               1         1.11193     828.375E-03        -1.11193     828.375E-03
            4923               1     687.192E-03         1.16887     687.192E-03        -1.16887
            4924               1     191.018E-03     737.908E-03     191.018E-03     737.908E-03
            4925               1         1.08078     918.617E-03         1.08078    -918.617E-03
            4926               1     867.259E-03     450.543E-03    -867.259E-03    -450.543E-03
            4927               1         1.78410     188.627E-03        -1.78410    -188.627E-03
            4928               1         1.26688     967.544E-03         1.26688    -967.544E-03
            4929               1     998.509E-03     970.026E-03    -998.509E-03    -970.026E-03
            4930               1         1.21041     864.843E-03        -1.21041     864.843E-03
            4931               1     575.295E-03     634.421E-03     575.295E-03     634.421E-03
            4932               1         1.15187         1.02853         1.15187        -1.02853
            4933               1         3.67616     461.938E-03         3.67616    -461.938E-03
            4934               1     119.189E-03         2.17843    -119.189E-03        -2.17843
            4935               1         1.16887     687.192E-03        -1.16887     687.192E-03
            4936               1     587.055E-03         1.27063    -587.055E-03        -1.27063
            4937               1         1.12017     816.793E-03         1.12017    -816.793E-03
            4938               1     632.877E-03     610.104E-03    -632.877E-03    -610.104E-03
            4939               1         3.84154     516.251E-03         3.84154    -516.251E-03
            4940               1         1.25085     989.681E-03         1.25085    -989.681E-03
            4941               1         1.10011         1.07088         1.10011        -1.07088
            4942               1     858.491E-03         1.18125     858.491E-03        -1.18125
            4943               1     884.870E-03         1.29582     884.870E-03        -1.29582
            4944               1         3.45918     465.612E-03         3.45918    -465.612E-03
            4945               1     788.595E-03     361.627E-03    -788.595E-03     361.627E-03
            4946               1     280.858E-03         1.81140    -280.858E-03        -1.81140
            4947               1     548.999E-03         1.23983     548.999E-03        -1.23983
            4948               1     874.416E-03     422.220E-03    -874.416E-03    -422.220E-03
            4949               1         1.55298     206.199E-03        -1.55298    -206.199E-03
            4950               1     727.638E-03         1.14170     727.638E-03        -1.14170
            4951               1         1.26644     772.808E-03         1.26644    -772.808E-03
            4952               1         1.03430         1.17474        -1.03430         1.17474
            4953               1         1.52340     829.768E-03        -1.52340     829.768E-03
            4954               1         1.28799     467.778E-03         1.28799    -467.778E-03
            4955               1     836.153E-03     349.153E-03     836.153E-03     349.153E-03
            4956               1     300.693E-03     834.459E-03    -300.693E-03    -834.459E-03
            4957               1         2.69801     438.122E-03         2.69801    -438.122E-03
            4958               1         1.37849     510.614E-03        -1.37849     510.614E-03
            4959               1         1.05581     850.265E-03         1.05581    -850.265E-03
            4960               1     770.645E-03         1.07349     770.645E-03        -1.07349
            4961               1     770.019E-03         3.13090    -770.019E-03         3.13090
            4962               1     386.802E-03     698.448E-03    -386.802E-03    -698.448E-03
            4963               1         1.40733     596.381E-03        -1.40733     596.381E-03
            4964               1     326.201E-03         1.84863    -326.201E-03         1.84863
            4965               1         1.28966     895.709E-03         1.28966    -895.709E-03
            4966               1     277.441E-03         1.37896     277.441E-03        -1.37896
            4967               1     131.373E-03         3.91137     131.373E-03        -3.91137
            4968               1         3.80259     523.629E-03         3.80259    -523.629E-03
            4969               1     259.911E-03         1.40427     259.911E-03        -1.40427
            4970               1     811.036E-03         3.32420    -811.036E-03         3.32420
            4971               1         1.96953     487.961E-03        -1.96953     487.961E-03
            4972               1     859.449E-03         1.26113     859.449E-03        -1.26113
            4973               1         1.11529     187.631E-03         1.11529    -187.631E-03
            4974               1         3.19320     434.929E-03         3.19320    -434.929E-03
            4975               1     119.661E-03         2.13139    -119.661E-03        -2.13139
            4976               1     460.547E-03         1.54685    -460.547E-03        -1.54685
            4977               1     586.202E-03         1.34125     586.202E-03        -1.34125
            4978               1     221.404E-03     322.609E-03    -221.404E-03    -322.609E-03
            4979               1         2.21526     785.479E-03        -2.21526    -785.479E-03
            4980               1     824.615E-03         1.17523     824.615E-03        -1.17523
            4981               1         2.04390     383.891E-03         2.04390    -383.891E-03
            4982               1         1.10973     86.8391E-03         1.10973     86.8391E-03
            4983               1         1.18315     374.734E-03         1.18315    -374.734E-03
            4984               1     28.2812E-03         4.02259     28.2812E-03        -4.02259
            4985               1     311.442E-03     520.164E-03    -311.442E-03    -520.164E-03
            4986               1         1.20177     908.825E-03        -1.20177     908.825E-03
            4987               1         1.27066     659.479E-03         1.27066    -659.479E-03
            4988               1     932.555E-03         1.45050     932.555E-03        -1.45050
            4989               1         1.43041         1.45429        -1.43041        -1.45429
            4990               1     591.740E-03         1.25154    -591.740E-03         1.25154
            4991               1     206.199E-03         1.55298    -206.199E-03        -1.55298
            4992               1         1.57441     280.221E-03         1.57441    -280.221E-03
            4993               1         1.23381     815.726E-03        -1.23381     815.726E-03
            4994               1         1.00527         2.69118        -1.00527         2.69118
            4995               1     196.195E-03         1.70598    -196.195E-03        -1.70598
            4996               1     953.589E-03         1.11129    -953.589E-03         1.11129
            4997               1     898.402E-03         1.46076     898.402E-03        -1.46076
            4998               1         1.34368         1.40262        -1.34368        -1.40262
            4999               1     940.108E-03         1.28363    -940.108E-03         1.28363
            5000               1     131.172E-03         4.19773    -131.172E-03         4.19773
            5001               1         1.09930         1.00671        -1.09930         1.00671
            5002               1     799.921E-03         2.40777     799.921E-03        -2.40777
            5003               1     532.375E-03     575.385E-03     532.375E-03     575.385E-03
            5004               1     715.269E-03     883.450E-03    -715.269E-03    -883.450E-03
            5005               1         1.46511     501.960E-03        -1.46511     501.960E-03
            5006               1     886.108E-03         1.34867     886.108E-03        -1.34867
            5007               1     493.975E-03     985.897E-03    -493.975E-03    -985.897E-03
            5008               1         3.69758     372.111E-03        -3.69758     372.111E-03
            5009               1     651.977E-03     663.300E-03    -651.977E-03    -663.300E-03
            5010               1         1.26191     416.559E-03         1.26191    -416.559E-03
            5011               1         1.32495     680.253E-03        -1.32495     680.253E-03
            5012               1         1.07841     802.679E-03        -1.07841     802.679E-03
            5013               1     849.230E-03         1.26360     849.230E-03        -1.26360
            5014               1     102.547E-03         4.04311    -102.547E-03         4.04311
            5015               1         3.66671     442.762E-03         3.66671    -442.762E-03
            5016               1         1.20433     713.236E-03         1.20433    -713.236E-03
            5017               1         1.17196         1.00865        -1.17196         1.00865
            5018               1     271.211E-03     762.794E-03    -271.211E-03    -762.794E-03
            5019               1     343.159E-03         3.54634     343.159E-03        -3.54634
            5020               1     951.791E-03     59.3091E-03     951.791E-03    -59.3091E-03
            5021               1     450.581E-03         1.40509     450.581E-03        -1.40509
            5022               1         1.23836     870.876E-03         1.23836    -870.876E-03
            5023               1     858.836E-03         1.15317    -858.836E-03         1.15317
            5024               1         1.24856     938.091E-03         1.24856    -938.091E-03
            5025               1     428.405E-03         1.68540    -428.405E-03        -1.68540
            5026               1         3.55471     482.850E-03         3.55471    -482.850E-03
            5027               1     905.919E-03     328.608E-03     905.919E-03     328.608E-03
            5028               1     201.971E-03         3.06962     201.971E-03        -3.06962
            5029               1         1.21829     854.989E-03        -1.21829     854.989E-03
            5030               1     198.385E-03         1.18961    -198.385E-03         1.18961
            5031               1         2.34469     80.7448E-03        -2.34469     80.7448E-03
            5032               1         1.19550     967.377E-03        -1.19550     967.377E-03
            5033               1     127.365E-03         4.19029    -127.365E-03         4.19029
            5034               1     880.785E-03         1.20299    -880.785E-03         1.20299
            5035               1         1.18125     858.491E-03        -1.18125     858.491E-03
            5036               1         1.61351     986.968E-03        -1.61351    -986.968E-03
            5037               1     188.627E-03         1.78410    -188.627E-03        -1.78410
            5038               1         1.06398         1.11696         1.06398        -1.11696
            5039               1         3.66532     483.246E-03         3.66532    -483.246E-03
            5040               1     153.701E-03         3.97477     153.701E-03        -3.97477
            5041               1     300.929E-03         1.45732     300.929E-03        -1.45732
            5042               1         1.22095         1.01358         1.22095        -1.01358
            5043               1     903.677E-03         1.26610    -903.677E-03         1.26610
            5044               1         1.11084     599.193E-03        -1.11084     599.193E-03
            5045               1         3.72492     399.417E-03        -3.72492     399.417E-03
            5046               1     874.287E-03         2.10120    -874.287E-03        -2.10120
            5047               1     31.4618E-03         1.22527     31.4618E-03         1.22527
            5048               1     147.181E-03         1.23368    -147.181E-03         1.23368
            5049               1     886.835E-03         1.09940     886.835E-03        -1.09940
            5050               1     19.6960E-03     15.0844E-03    -19.6960E-03    -15.0844E-03
            5051               1         3.72681     379.980E-03        -3.72681     379.980E-03
            5052               1     123.572E-03         4.18108    -123.572E-03         4.18108
            5053               1     933.095E-03         1.29942    -933.095E-03         1.29942
            5054               1         2.83983         1.44984        -2.83983         1.44984
            5055               1         1.38808     967.683E-03        -1.38808     967.683E-03
            5056               1     381.342E-03         3.73506     381.342E-03        -3.73506
            5057               1     717.967E-03     377.336E-03     717.967E-03    -377.336E-03
            5058               1         1.78787         1.56323        -1.78787        -1.56323
            5059               1         1.10610     665.141E-03        -1.10610     665.141E-03
            5060               1     94.7601E-03         1.09766     94.7601E-03         1.09766
            5061               1     88.4035E-03         1.12125    -88.4035E-03         1.12125
            5062               1     814.019E-03     589.858E-03    -814.019E-03    -589.858E-03
            5063               1         1.19742     469.107E-03         1.19742     469.107E-03
            5064               1         1.13374     842.106E-03         1.13374    -842.106E-03
            5065               1     336.031E-03     239.988E-03    -336.031E-03    -239.988E-03
            5066               1     944.875E-03     70.1587E-03     944.875E-03    -70.1587E-03
            5067               1     735.232E-03     505.860E-03     735.232E-03     505.860E-03
            5068               1         1.93634     765.193E-03        -1.93634    -765.193E-03
            5069               1     170.159E-03         1.41492     170.159E-03        -1.41492
            5070               1     184.354E-03         1.00107     184.354E-03         1.00107
            5071               1         1.27718         1.46353        -1.27718        -1.46353
            5072               1     956.819E-03     236.249E-03     956.819E-03    -236.249E-03
            5073               1     810.017E-03     95.5212E-03     810.017E-03    -95.5212E-03
            5074               1     914.477E-03     562.984E-03     914.477E-03     562.984E-03
            5075               1     535.538E-03     34.9089E-03     535.538E-03     34.9089E-03
            5076               1     536.223E-03     136.342E-03     536.223E-03     136.342E-03
            5077               1     376.750E-03     626.555E-03     376.750E-03     626.555E-03
            5078               1         2.99569         1.80800        -2.99569         1.80800
            5079               1     866.879E-03     436.418E-03     866.879E-03     436.418E-03
            5080               1     800.590E-03     477.407E-03     800.590E-03     477.407E-03
            5081               1         1.10752     910.576E-03         1.10752    -910.576E-03
            5082               1     43.2439E-03     449.968E-03     43.2439E-03    -449.968E-03
            5083               1     421.038E-03     21.9965E-03     421.038E-03    -21.9965E-03
            5084               1         2.84705     708.787E-03         2.84705    -708.787E-03
            5085               1         1.24768     487.328E-03         1.24768    -487.328E-03
            5086               1         1.25797     382.958E-03        -1.25797     382.958E-03
            5087               1         3.05509         1.32813         3.05509        -1.32813
            5088               1         2.03018     418.857E-03        -2.03018     418.857E-03
            5089               1     454.522E-03     924.674E-03    -454.522E-03    -924.674E-03
            5090               1     218.605E-03     588.395E-03     218.605E-03     588.395E-03
            5091               1     63.3070E-03         1.62581     63.3070E-03        -1.62581
            5092               1     335.129E-03         3.54017     335.129E-03        -3.54017
            5093               1     937.023E-03     770.272E-03    -937.023E-03    -770.272E-03
            5094               1         1.95397     264.107E-03        -1.95397     264.107E-03
            5095               1     127.352E-03     73.1152E-03    -127.352E-03    -73.1152E-03
            5096               1     655.011E-03         2.01568    -655.011E-03        -2.01568
            5097               1     438.122E-03         2.69801    -438.122E-03         2.69801
            5098               1     365.479E-03         1.79644     365.479E-03        -1.79644
            5099               1     32.8992E-03     295.431E-03     32.8992E-03     295.431E-03
            5100               1     953.130E-03         1.27300    -953.130E-03         1.27300
            5101               1     417.711E-03         2.63242     417.711E-03        -2.63242
            5102               1     565.105E-03     236.439E-03    -565.105E-03    -236.439E-03
            5103               1         1.17911     774.585E-03         1.17911    -774.585E-03
            5104               1     198.706E-03         1.20075    -198.706E-03         1.20075
            5105               1     476.146E-03     568.368E-03    -476.146E-03    -568.368E-03
            5106               1     732.894E-03         1.08090     732.894E-03        -1.08090
            5107               1         2.87313         1.06290        -2.87313         1.06290
            5108               1     753.639E-03         3.41447     753.639E-03        -3.41447
            5109               1     333.052E-03         3.54852     333.052E-03        -3.54852
            5110               1     868.110E-03     999.097E-03    -868.110E-03     999.097E-03
            5111               1         3.23368     785.850E-03         3.23368    -785.850E-03
            5112               1     495.425E-03     993.271E-03    -495.425E-03    -993.271E-03
            5113               1     452.898E-03         1.49349    -452.898E-03         1.49349
            5114               1     844.982E-03     952.224E-03     844.982E-03    -952.224E-03
            5115               1     527.187E-03         1.66679    -527.187E-03        -1.66679
            5116               1     648.593E-03     505.265E-03     648.593E-03     505.265E-03
            5117               1         3.30955     797.257E-03         3.30955    -797.257E-03
            5118               1         2.97030         1.19289        -2.97030         1.19289
            5119               1         1.01276     830.154E-03        -1.01276     830.154E-03
            5120               1     784.827E-03         3.54800     784.827E-03        -3.54800
            5121               1     250.864E-03         1.51487     250.864E-03        -1.51487
            5122               1     773.250E-03         1.02421     773.250E-03        -1.02421
            5123               1     883.658E-03         1.25142     883.658E-03        -1.25142
            5124               1         1.08077         3.57685         1.08077        -3.57685
            5125               1     905.624E-03     400.476E-03     905.624E-03     400.476E-03
            5126               1     349.153E-03     836.153E-03     349.153E-03     836.153E-03
            5127               1     511.311E-03     721.839E-03    -511.311E-03    -721.839E-03
            5128               1         1.08208     875.728E-03         1.08208    -875.728E-03
            5129               1         1.08083     172.313E-03         1.08083     172.313E-03
            5130               1     510.161E-03     958.135E-03    -510.161E-03    -958.135E-03
            5131               1     534.512E-03         3.84735    -534.512E-03         3.84735
            5132               1     511.525E-03         1.74136    -511.525E-03         1.74136
            5133               1         1.51976     161.564E-03        -1.51976     161.564E-03
            5134               1     131.363E-03         1.69722    -131.363E-03        -1.69722
            5135               1         2.85601         1.44455        -2.85601         1.44455
            5136               1     354.563E-03     28.8650E-03     354.563E-03     28.8650E-03
            5137               1     49.3853E-03     33.6003E-03     49.3853E-03    -33.6003E-03
            5138               1     831.325E-03     586.192E-03    -831.325E-03    -586.192E-03
            5139               1     84.2293E-03         1.15151     84.2293E-03         1.15151
            5140               1     984.472E-03         1.30907    -984.472E-03         1.30907
            5141               1     502.100E-03         3.62780     502.100E-03        -3.62780
            5142               1         1.22019     976.540E-03         1.22019    -976.540E-03
            5143               1     175.978E-03     470.622E-03     175.978E-03     470.622E-03
            5144               1     913.770E-03         3.51523    -913.770E-03         3.51523
            5145               1     863.381E-03         1.56271     863.381E-03        -1.56271
            5146               1     490.158E-03         1.42362     490.158E-03        -1.42362
            5147               1     833.054E-03     204.155E-03     833.054E-03     204.155E-03
            5148               1         1.11095     812.399E-03        -1.11095     812.399E-03
            5149               1         1.16203         2.79760         1.16203        -2.79760
            5150               1         1.06390     181.630E-03         1.06390     181.630E-03
            5151               1         1.74136     511.525E-03         1.74136    -511.525E-03
            5152               1         1.37732     702.322E-03        -1.37732     702.322E-03
            5153               1         1.68665     712.905E-03        -1.68665    -712.905E-03
            5154               1     807.666E-03         3.27090    -807.666E-03         3.27090
            5155               1         1.49285     995.701E-03        -1.49285     995.701E-03
            5156               1     649.575E-03         1.05471     649.575E-03        -1.05471
            5157               1     414.066E-03         2.26601    -414.066E-03         2.26601
            5158               1     717.857E-03     719.707E-03    -717.857E-03    -719.707E-03
            5159               1         3.29243     793.345E-03         3.29243    -793.345E-03
            5160               1     149.305E-03         1.62178     149.305E-03        -1.62178
            5161               1         2.97831     984.538E-03        -2.97831     984.538E-03
            5162               1     135.689E-03         1.52925     135.689E-03        -1.52925
            5163               1     929.765E-03     26.4159E-03     929.765E-03     26.4159E-03
            5164               1     354.406E-03         2.54140    -354.406E-03        -2.54140
            5165               1     756.688E-03         1.39499     756.688E-03        -1.39499
            5166               1     883.182E-03     552.770E-03     883.182E-03     552.770E-03
            5167               1         1.58986     960.868E-03        -1.58986     960.868E-03
            5168               1     364.608E-03         1.23412    -364.608E-03         1.23412
            5169               1         1.19171         3.04145         1.19171        -3.04145
            5170               1         1.10217     838.534E-03         1.10217    -838.534E-03
            5171               1         3.46455     886.261E-03         3.46455    -886.261E-03
            5172               1     613.552E-03         1.54448    -613.552E-03        -1.54448
            5173               1         2.34309     892.536E-03         2.34309    -892.536E-03
            5174               1     306.310E-03     600.448E-03    -306.310E-03    -600.448E-03
            5175               1     907.464E-03         1.21764     907.464E-03        -1.21764
            5176               1         1.76015         1.28003        -1.76015        -1.28003
            5177               1     918.863E-03         1.24836     918.863E-03        -1.24836
            5178               1     702.429E-03     807.412E-03     702.429E-03    -807.412E-03
            5179               1     581.382E-03         1.53042    -581.382E-03        -1.53042
            5180               1         1.64962     924.546E-03        -1.64962     924.546E-03
            5181               1         1.72105     526.845E-03         1.72105    -526.845E-03
            5182               1     894.253E-03         1.06439    -894.253E-03         1.06439
            5183               1     379.980E-03         3.72681     379.980E-03        -3.72681
            5184               1     866.499E-03         1.06955     866.499E-03        -1.06955
            5185               1         1.01468         1.03764         1.01468        -1.03764
            5186               1         2.32538         1.37652        -2.32538         1.37652
            5187               1         2.94974     710.674E-03         2.94974    -710.674E-03
            5188               1     690.603E-03     198.381E-03     690.603E-03     198.381E-03
            5189               1         1.12737         2.96750        -1.12737         2.96750
            5190               1         1.37107     734.061E-03        -1.37107     734.061E-03
            5191               1     668.261E-03         2.45206    -668.261E-03        -2.45206
            5192               1         1.27512     760.673E-03         1.27512    -760.673E-03
            5193               1         3.48015     887.293E-03         3.48015    -887.293E-03
            5194               1     523.629E-03         3.80259    -523.629E-03         3.80259
            5195               1     305.889E-03     157.777E-03     305.889E-03     157.777E-03
            5196               1     870.746E-03     32.0484E-03     870.746E-03     32.0484E-03
            5197               1     650.846E-03         2.87299     650.846E-03        -2.87299
            5198               1     885.332E-03         1.11670     885.332E-03        -1.11670
            5199               1         1.05950     894.964E-03         1.05950    -894.964E-03
            5200               1         3.35230     834.018E-03         3.35230    -834.018E-03
            5201               1         1.25478     397.683E-03         1.25478    -397.683E-03
            5202               1         1.13596         1.07276         1.13596        -1.07276
            5203               1     736.378E-03         2.99278    -736.378E-03         2.99278
            5204               1     82.2327E-03         1.15010    -82.2327E-03         1.15010
            5205               1         2.55630         1.62841        -2.55630         1.62841
            5206               1     962.568E-03         3.04474     962.568E-03        -3.04474
            5207               1     70.1587E-03     944.875E-03    -70.1587E-03     944.875E-03
            5208               1         1.46636         1.36925        -1.46636        -1.36925
            5209               1         3.27463     779.842E-03         3.27463    -779.842E-03
            5210               1         1.11448     858.366E-03         1.11448    -858.366E-03
            5211               1     762.508E-03         1.10289     762.508E-03        -1.10289
            5212               1         1.18608     829.531E-03        -1.18608     829.531E-03
            5213               1         3.24982     729.014E-03        -3.24982     729.014E-03
            5214               1     867.959E-03         1.12245    -867.959E-03        -1.12245
            5215               1         1.11195     512.936E-03        -1.11195    -512.936E-03
            5216               1     780.915E-03         3.27857    -780.915E-03         3.27857
            5217               1     70.8892E-03         1.62394     70.8892E-03        -1.62394
            5218               1     115.645E-03         1.54786    -115.645E-03        -1.54786
            5219               1     339.228E-03         3.57983     339.228E-03        -3.57983
            5220               1     769.038E-03     983.165E-03     769.038E-03    -983.165E-03
            5221               1         1.20157         1.01230         1.20157        -1.01230
            5222               1     390.155E-03     619.417E-03    -390.155E-03    -619.417E-03
            5223               1         1.18166         1.04476         1.18166        -1.04476
            5224               1     824.430E-03         1.31104     824.430E-03        -1.31104
            5225               1         1.05890     278.451E-03         1.05890     278.451E-03
            5226               1         1.26086     982.174E-03         1.26086    -982.174E-03
            5227               1         1.18708     773.931E-03         1.18708    -773.931E-03
            5228               1         3.41004     752.119E-03        -3.41004     752.119E-03
            5229               1         1.47868     817.339E-03        -1.47868     817.339E-03
            5230               1         2.93278     826.972E-03        -2.93278     826.972E-03
            5231               1     501.475E-03         3.72119    -501.475E-03         3.72119
            5232               1     669.139E-03         1.83284    -669.139E-03        -1.83284
            5233               1         3.50192     889.425E-03         3.50192    -889.425E-03
            5234               1     352.491E-03     100.118E-03     352.491E-03     100.118E-03
            5235               1     931.388E-03     661.869E-03    -931.388E-03     661.869E-03
            5236               1     138.822E-03     891.190E-03    -138.822E-03     891.190E-03
            5237               1     420.164E-03         1.65792    -420.164E-03        -1.65792
            5238               1         1.15413     795.042E-03        -1.15413     795.042E-03
            5239               1         2.15505     562.667E-03        -2.15505    -562.667E-03
            5240               1     793.345E-03         3.29243    -793.345E-03         3.29243
            5241               1     834.620E-03         1.27569    -834.620E-03         1.27569
            5242               1     274.652E-03         1.71586     274.652E-03        -1.71586
            5243               1     482.878E-03         3.60194    -482.878E-03         3.60194
            5244               1     769.606E-03         1.11808    -769.606E-03         1.11808
            5245               1     583.440E-03         1.20640    -583.440E-03        -1.20640
            5246               1     105.459E-03         1.88553    -105.459E-03        -1.88553
            5247               1         1.05364     994.254E-03         1.05364    -994.254E-03
            5248               1     803.410E-03         3.26605    -803.410E-03         3.26605
            5249               1         1.51425     75.2668E-03        -1.51425     75.2668E-03
            5250               1         2.18922     863.429E-03         2.18922    -863.429E-03
            5251               1     834.951E-03         1.08235     834.951E-03        -1.08235
            5252               1         1.24986     674.340E-03         1.24986    -674.340E-03
            5253               1         3.09426     752.367E-03         3.09426    -752.367E-03
            5254               1     787.170E-03     206.845E-03     787.170E-03    -206.845E-03
            5255               1     674.340E-03         1.24986    -674.340E-03         1.24986
            5256               1     953.362E-03         1.22231    -953.362E-03         1.22231
            5257               1     939.018E-03         1.18511    -939.018E-03         1.18511
            5258               1     612.536E-03         3.61390     612.536E-03        -3.61390
            5259               1     300.354E-03         1.42144     300.354E-03        -1.42144
            5260               1     939.898E-03     764.792E-03    -939.898E-03     764.792E-03
            5261               1     902.313E-03         1.18516     902.313E-03        -1.18516
            5262               1     382.958E-03         1.25797     382.958E-03        -1.25797
            5263               1         1.09761         1.07322         1.09761        -1.07322
            5264               1     160.163E-03     390.304E-03     160.163E-03     390.304E-03
            5265               1         1.08544     966.855E-03        -1.08544     966.855E-03
            5266               1         1.00681     399.891E-03        -1.00681     399.891E-03
            5267               1         3.33086     796.862E-03        -3.33086     796.862E-03
            5268               1         2.85729         1.16227         2.85729        -1.16227
            5269               1     798.876E-03     756.022E-03    -798.876E-03     756.022E-03
            5270               1         3.07879         1.22353        -3.07879         1.22353
            5271               1         1.81945     394.907E-03        -1.81945     394.907E-03
            5272               1         1.72403     449.299E-03        -1.72403    -449.299E-03
            5273               1         1.84670         2.57156         1.84670        -2.57156
            5274               1         3.36715     732.383E-03        -3.36715     732.383E-03
            5275               1     963.308E-03     782.106E-03    -963.308E-03     782.106E-03
            5276               1         1.18751     567.169E-03        -1.18751     567.169E-03
            5277               1         1.22904     102.531E-03         1.22904     102.531E-03
            5278               1     44.0094E-03     36.1443E-03    -44.0094E-03     36.1443E-03
            5279               1     460.781E-03     803.355E-03     460.781E-03     803.355E-03
            5280               1     598.671E-03         1.35210    -598.671E-03        -1.35210
            5281               1     692.903E-03     305.667E-03     692.903E-03     305.667E-03
            5282               1     268.373E-03     499.122E-03     268.373E-03     499.122E-03
            5283               1     482.850E-03         3.55471    -482.850E-03         3.55471
            5284               1     726.913E-03         1.15574    -726.913E-03         1.15574
            5285               1     324.349E-03     84.2039E-03     324.349E-03    -84.2039E-03
            5286               1     476.231E-03         3.47379    -476.231E-03         3.47379
            5287               1     669.522E-03         1.20205    -669.522E-03         1.20205
            5288               1     258.681E-03     12.9593E-03    -258.681E-03    -12.9593E-03
            5289               1         1.30443     518.402E-03         1.30443    -518.402E-03
            5290               1     337.649E-03         1.25846    -337.649E-03         1.25846
            5291               1         3.45406     877.554E-03         3.45406    -877.554E-03
            5292               1         1.70559     822.166E-03        -1.70559    -822.166E-03
            5293               1     892.567E-03     996.685E-03    -892.567E-03    -996.685E-03
            5294               1         1.24352     964.098E-03         1.24352    -964.098E-03
            5295               1     168.756E-03     157.874E-03    -168.756E-03     157.874E-03
            5296               1         1.13256     863.822E-03        -1.13256     863.822E-03
            5297               1     32.1630E-03     236.470E-03     32.1630E-03     236.470E-03
            5298               1         1.23104     966.912E-03         1.23104    -966.912E-03
            5299               1     910.505E-03         1.16078    -910.505E-03         1.16078
            5300               1     734.066E-03     796.413E-03    -734.066E-03     796.413E-03
            5301               1     947.441E-03         3.27482     947.441E-03        -3.27482
            5302               1         1.04789     8.64810E-03         1.04789    -8.64810E-03
            5303               1         2.67925     669.670E-03         2.67925    -669.670E-03
            5304               1     334.735E-03         1.49787     334.735E-03        -1.49787
            5305               1         2.52135     653.890E-03         2.52135    -653.890E-03
            5306               1         1.01155     888.002E-03         1.01155    -888.002E-03
            5307               1     573.169E-03     761.747E-03    -573.169E-03    -761.747E-03
            5308               1         2.34189     634.641E-03         2.34189    -634.641E-03
            5309               1     166.095E-03         1.51928     166.095E-03        -1.51928
            5310               1     698.141E-03     363.944E-03     698.141E-03     363.944E-03
            5311               1         1.20298     44.4024E-03         1.20298     44.4024E-03
            5312               1     554.625E-03     624.734E-03     554.625E-03     624.734E-03
            5313               1         1.62314     249.777E-03        -1.62314    -249.777E-03
            5314               1     418.857E-03         2.03018     418.857E-03        -2.03018
            5315               1         1.76233     696.588E-03        -1.76233    -696.588E-03
            5316               1         1.04633     469.200E-03        -1.04633    -469.200E-03
            5317               1     394.973E-03         2.26959    -394.973E-03         2.26959
            5318               1         1.51954     80.6513E-03        -1.51954     80.6513E-03
            5319               1     212.092E-03     121.801E-03    -212.092E-03     121.801E-03
            5320               1     197.744E-03     366.076E-03    -197.744E-03    -366.076E-03
            5321               1     126.282E-03     136.393E-03    -126.282E-03    -136.393E-03
            5322               1     873.872E-03     563.510E-03     873.872E-03     563.510E-03
            5323               1         1.41311         1.27348        -1.41311        -1.27348
            5324               1     779.842E-03         3.27463    -779.842E-03         3.27463
            5325               1     479.082E-03     140.272E-03     479.082E-03     140.272E-03
            5326               1         1.02514         1.27752         1.02514        -1.27752
            5327               1         1.46365     222.388E-03        -1.46365     222.388E-03
            5328               1     825.230E-03         1.11759     825.230E-03        -1.11759
            5329               1     472.120E-03     151.601E-03     472.120E-03     151.601E-03
            5330               1     265.700E-03         1.91576     265.700E-03        -1.91576
            5331               1         1.28323     769.610E-03        -1.28323    -769.610E-03
            5332               1         1.13550     966.886E-03        -1.13550     966.886E-03
            5333               1         2.27498     335.105E-03        -2.27498    -335.105E-03
            5334               1         3.09697         1.25818        -3.09697         1.25818
            5335               1     799.538E-03     766.858E-03     799.538E-03    -766.858E-03
            5336               1     452.194E-03     444.261E-03     452.194E-03     444.261E-03
            5337               1     418.063E-03     60.9051E-03     418.063E-03     60.9051E-03
            5338               1         1.04170     961.782E-03         1.04170    -961.782E-03
            5339               1         1.28072     823.119E-03        -1.28072     823.119E-03
            5340               1     750.858E-03         3.39977     750.858E-03        -3.39977
            5341               1         1.53642         1.18172        -1.53642         1.18172
            5342               1         1.36105     587.444E-03        -1.36105    -587.444E-03
            5343               1         2.73283         1.05472         2.73283        -1.05472
            5344               1     834.018E-03         3.35230    -834.018E-03         3.35230
            5345               1     963.462E-03     843.023E-03    -963.462E-03     843.023E-03
            5346               1         2.97377         1.16012        -2.97377         1.16012
            5347               1         2.22318         1.52443        -2.22318         1.52443
            5348               1         1.06832     800.744E-03        -1.06832     800.744E-03
            5349               1     908.583E-03     983.216E-03    -908.583E-03     983.216E-03
            5350               1     872.372E-03     544.343E-03    -872.372E-03     544.343E-03
            5351               1         1.56221     955.082E-03        -1.56221     955.082E-03
            5352               1     714.048E-03     198.992E-03     714.048E-03    -198.992E-03
            5353               1         2.51558         1.89960         2.51558        -1.89960
            5354               1         1.17261     796.595E-03         1.17261    -796.595E-03
            5355               1     7.95078E-03         1.14446     7.95078E-03         1.14446
            5356               1     642.129E-03         1.38380    -642.129E-03         1.38380
            5357               1         1.49076     598.291E-03        -1.49076    -598.291E-03
            5358               1         1.29635         1.04769         1.29635        -1.04769
            5359               1     362.112E-03         1.09858     362.112E-03        -1.09858
            5360               1         1.56945     748.792E-03        -1.56945     748.792E-03
            5361               1         1.27352     574.981E-03        -1.27352    -574.981E-03
            5362               1     792.415E-03     675.082E-03    -792.415E-03    -675.082E-03
            5363               1     899.029E-03     782.850E-03     899.029E-03    -782.850E-03
            5364               1     276.388E-03     728.051E-03    -276.388E-03     728.051E-03
            5365               1     708.787E-03         2.84705    -708.787E-03         2.84705
            5366               1         1.12604     412.785E-03         1.12604    -412.785E-03
            5367               1     810.901E-03         2.45480     810.901E-03        -2.45480
            5368               1         1.22607     335.656E-03         1.22607    -335.656E-03
            5369               1     638.512E-03     661.842E-03     638.512E-03    -661.842E-03
            5370               1         1.60222         1.34867        -1.60222         1.34867
            5371               1     606.402E-03     852.441E-03    -606.402E-03     852.441E-03
            5372               1     240.045E-03     763.554E-03     240.045E-03    -763.554E-03
            5373               1     686.592E-03         3.23566     686.592E-03        -3.23566
            5374               1         1.10916         2.85519        -1.10916         2.85519
            5375               1     685.371E-03     642.323E-03     685.371E-03    -642.323E-03
            5376               1         1.43833     702.813E-03        -1.43833    -702.813E-03
            5377               1     822.166E-03         1.70559    -822.166E-03        -1.70559
            5378               1         2.03420         2.13612        -2.03420         2.13612
            5379               1         1.11467     891.141E-03         1.11467    -891.141E-03
            5380               1     675.082E-03     792.415E-03    -675.082E-03    -792.415E-03
            5381               1         1.50854     549.181E-03        -1.50854     549.181E-03
            5382               1     157.899E-03         1.61451     157.899E-03        -1.61451
            5383               1         1.61222     289.188E-03        -1.61222    -289.188E-03
            5384               1         1.06117     501.347E-03        -1.06117    -501.347E-03
            5385               1     539.662E-03         1.48495     539.662E-03        -1.48495
            5386               1     633.335E-03         1.15920     633.335E-03        -1.15920
            5387               1     970.045E-03         1.11058    -970.045E-03         1.11058
            5388               1     855.854E-03     982.487E-03    -855.854E-03     982.487E-03
            5389               1     548.694E-03     229.278E-03    -548.694E-03    -229.278E-03
            5390               1         1.87400         2.45503        -1.87400         2.45503
            5391               1         1.14364     544.103E-03         1.14364    -544.103E-03
            5392               1     174.169E-03     569.069E-03     174.169E-03     569.069E-03
            5393               1         1.25773     356.985E-03         1.25773    -356.985E-03
            5394               1         1.36389     533.863E-03        -1.36389     533.863E-03
            5395               1         1.59382     99.4479E-03        -1.59382    -99.4479E-03
            5396               1     568.849E-03         1.93186    -568.849E-03         1.93186
            5397               1     788.493E-03     788.862E-03     788.493E-03    -788.862E-03
            5398               1     364.330E-03     459.222E-03     364.330E-03     459.222E-03
            5399               1     461.235E-03         1.22014    -461.235E-03         1.22014
            5400               1     138.683E-03         1.16407     138.683E-03         1.16407
            5401               1     591.952E-03         1.92093    -591.952E-03         1.92093
            5402               1         2.26141         1.34570        -2.26141         1.34570
            5403               1     599.098E-03     304.542E-03     599.098E-03     304.542E-03
            5404               1     984.528E-03     857.063E-03     984.528E-03    -857.063E-03
            5405               1     440.383E-03     723.754E-03     440.383E-03     723.754E-03
            5406               1     755.787E-03         3.41899     755.787E-03        -3.41899
            5407               1     907.265E-03         1.10943    -907.265E-03         1.10943
            5408               1     615.790E-03         1.26439     615.790E-03        -1.26439
            5409               1         2.80447         1.01228        -2.80447         1.01228
            5410               1         2.30760     355.502E-03        -2.30760    -355.502E-03
            5411               1     990.619E-03         1.36666     990.619E-03        -1.36666
            5412               1     769.395E-03     370.704E-03     769.395E-03     370.704E-03
            5413               1         2.85519         1.10916         2.85519        -1.10916
            5414               1         1.33748     881.052E-03        -1.33748     881.052E-03
            5415               1         1.21465     158.451E-03         1.21465    -158.451E-03
            5416               1         1.44274     640.429E-03        -1.44274     640.429E-03
            5417               1     503.678E-03     742.756E-03    -503.678E-03    -742.756E-03
            5418               1     972.016E-03     791.171E-03    -972.016E-03     791.171E-03
            5419               1     583.999E-03         1.23651    -583.999E-03         1.23651
            5420               1     260.649E-03     918.621E-03    -260.649E-03    -918.621E-03
            5421               1     904.995E-03         1.13429     904.995E-03        -1.13429
            5422               1     764.004E-03         3.42445     764.004E-03        -3.42445
            5423               1     495.779E-03     680.787E-03     495.779E-03     680.787E-03
            5424               1     587.444E-03         1.36105    -587.444E-03        -1.36105
            5425               1     560.680E-03         1.15641     560.680E-03        -1.15641
            5426               1     132.900E-03     159.558E-03    -132.900E-03    -159.558E-03
            5427               1         1.07609     546.894E-03        -1.07609     546.894E-03
            5428               1         1.08960     764.839E-03        -1.08960     764.839E-03
            5429               1         2.35071     921.856E-03         2.35071    -921.856E-03
            5430               1     622.992E-03     291.619E-03     622.992E-03     291.619E-03
            5431               1     191.724E-03     275.779E-03    -191.724E-03    -275.779E-03
            5432               1     704.250E-03         1.38089    -704.250E-03        -1.38089
            5433               1         1.52817     421.650E-03        -1.52817     421.650E-03
            5434               1         1.30676         1.89464         1.30676        -1.89464
            5435               1     491.166E-03     140.953E-03     491.166E-03     140.953E-03
            5436               1         1.62841         2.55630         1.62841        -2.55630
            5437               1     333.817E-03     49.1746E-03     333.817E-03     49.1746E-03
            5438               1     650.719E-03     484.357E-03    -650.719E-03     484.357E-03
            5439               1         1.55942     317.329E-03        -1.55942     317.329E-03
            5440               1     847.261E-03         3.27807     847.261E-03        -3.27807
            5441               1     524.627E-03         1.21191     524.627E-03        -1.21191
            5442               1     995.840E-03     838.067E-03    -995.840E-03     838.067E-03
            5443               1     968.275E-03         2.09793     968.275E-03        -2.09793
            5444               1         2.88673         1.09848         2.88673        -1.09848
            5445               1     864.712E-03         1.03417    -864.712E-03         1.03417
            5446               1     645.692E-03     651.371E-03    -645.692E-03     651.371E-03
            5447               1     993.243E-03         1.70572     993.243E-03        -1.70572
            5448               1         1.19984     446.515E-03         1.19984    -446.515E-03
            5449               1         2.46846     915.166E-03         2.46846    -915.166E-03
            5450               1     961.104E-03         1.07022     961.104E-03        -1.07022
            5451               1     547.619E-03     271.427E-03     547.619E-03     271.427E-03
            5452               1         1.17773     948.852E-03        -1.17773     948.852E-03
            5453               1         1.86948         1.08700         1.86948        -1.08700
            5454               1     870.382E-03         3.41548    -870.382E-03         3.41548
            5455               1     496.919E-03     969.957E-03    -496.919E-03    -969.957E-03
            5456               1         2.39112     3.79374E-03        -2.39112    -3.79374E-03
            5457               1     533.863E-03         1.36389     533.863E-03        -1.36389
            5458               1         1.61417     186.482E-03        -1.61417    -186.482E-03
            5459               1     851.398E-03     801.873E-03    -851.398E-03     801.873E-03
            5460               1     793.975E-03         3.22920    -793.975E-03         3.22920
            5461               1     760.888E-03         1.10017    -760.888E-03         1.10017
            5462               1     984.538E-03         2.97831     984.538E-03        -2.97831
            5463               1     769.715E-03     915.954E-03     769.715E-03    -915.954E-03
            5464               1     986.542E-03         1.02466    -986.542E-03         1.02466
            5465               1     786.034E-03         3.28600    -786.034E-03         3.28600
            5466               1         2.43413         1.44894         2.43413        -1.44894
            5467               1     747.503E-03     692.554E-03    -747.503E-03     692.554E-03
            5468               1         1.16632     431.488E-03         1.16632    -431.488E-03
            5469               1         1.13404         1.32487         1.13404        -1.32487
            5470               1     812.502E-03     925.474E-03    -812.502E-03     925.474E-03
            5471               1     941.897E-03         1.15884    -941.897E-03         1.15884
            5472               1         1.13383     876.111E-03        -1.13383     876.111E-03
            5473               1         1.81150     784.722E-03         1.81150    -784.722E-03
            5474               1         1.62394     70.8892E-03        -1.62394     70.8892E-03
            5475               1     555.560E-03         1.56538    -555.560E-03        -1.56538
            5476               1     36.1443E-03     44.0094E-03     36.1443E-03    -44.0094E-03
            5477               1         3.04728         1.18805        -3.04728         1.18805
            5478               1     318.252E-03     431.687E-03    -318.252E-03    -431.687E-03
            5479               1         1.04943         2.61654         1.04943        -2.61654
            5480               1         1.04577     935.799E-03         1.04577    -935.799E-03
            5481               1         1.70572     993.243E-03        -1.70572     993.243E-03
            5482               1     980.412E-03         1.10299    -980.412E-03         1.10299
            5483               1     993.502E-03         1.25019    -993.502E-03         1.25019
            5484               1     861.386E-03         1.32003     861.386E-03        -1.32003
            5485               1     926.604E-03         1.02781    -926.604E-03         1.02781
            5486               1         2.02770         1.09019         2.02770        -1.09019
            5487               1         2.42293     58.0513E-03        -2.42293     58.0513E-03
            5488               1     975.477E-03     766.906E-03    -975.477E-03     766.906E-03
            5489               1         2.74787         1.00323        -2.74787         1.00323
            5490               1     45.5237E-03     183.649E-03    -45.5237E-03     183.649E-03
            5491               1         2.46221         1.46859        -2.46221         1.46859
            5492               1         1.03579     740.947E-03         1.03579    -740.947E-03
            5493               1     931.609E-03     388.626E-03     931.609E-03     388.626E-03
            5494               1         1.14446     7.95078E-03         1.14446     7.95078E-03
            5495               1     86.4132E-03         1.23414    -86.4132E-03         1.23414
            5496               1     544.542E-03         1.11190    -544.542E-03         1.11190
            5497               1         1.66719         2.88818         1.66719        -2.88818
            5498               1     821.804E-03     797.307E-03     821.804E-03    -797.307E-03
            5499               1     728.758E-03     781.810E-03     728.758E-03    -781.810E-03
            5500               1     591.640E-03         2.21810     591.640E-03        -2.21810
            5501               1         1.28095     369.979E-03         1.28095    -369.979E-03
            5502               1     840.060E-03         1.77578    -840.060E-03        -1.77578
            5503               1     781.979E-03     169.783E-03     781.979E-03    -169.783E-03
            5504               1     886.007E-03     60.9431E-03    -886.007E-03    -60.9431E-03
            5505               1         1.19600         2.94240        -1.19600         2.94240
            5506               1         1.18519         2.22904         1.18519        -2.22904
            5507               1         1.23651     583.999E-03         1.23651    -583.999E-03
            5508               1         2.55738     933.408E-03         2.55738    -933.408E-03
            5509               1     694.036E-03     710.329E-03    -694.036E-03     710.329E-03
            5510               1     171.062E-03         1.73790    -171.062E-03        -1.73790
            5511               1     969.249E-03     815.520E-03    -969.249E-03     815.520E-03
            5512               1     460.896E-03     809.620E-03     460.896E-03     809.620E-03
            5513               1         1.51372     299.056E-03        -1.51372     299.056E-03
            5514               1         1.06408     526.914E-03        -1.06408    -526.914E-03
            5515               1         1.08209     936.201E-03         1.08209    -936.201E-03
            5516               1     864.380E-03         1.01979    -864.380E-03         1.01979
            5517               1     819.572E-03     894.566E-03     819.572E-03    -894.566E-03
            5518               1         2.95680         1.10154        -2.95680         1.10154
            5519               1     697.343E-03     716.047E-03     697.343E-03    -716.047E-03
            5520               1     348.053E-03     684.223E-03     348.053E-03     684.223E-03
            5521               1     163.715E-03     56.3567E-03    -163.715E-03    -56.3567E-03
            5522               1         3.01844         1.30345         3.01844        -1.30345
            5523               1         1.17982     575.167E-03         1.17982    -575.167E-03
            5524               1         1.04354     723.113E-03        -1.04354     723.113E-03
            5525               1         1.06409     784.294E-03         1.06409    -784.294E-03
            5526               1         1.37148     750.217E-03        -1.37148     750.217E-03
            5527               1         2.43201         1.85714         2.43201        -1.85714
            5528               1         1.17049     532.492E-03        -1.17049    -532.492E-03
            5529               1     890.356E-03     848.906E-03    -890.356E-03     848.906E-03
            5530               1     601.862E-03         2.25719     601.862E-03        -2.25719
            5531               1         1.11931         2.85167        -1.11931         2.85167
            5532               1         1.27891     454.122E-03        -1.27891     454.122E-03
            5533               1         1.19620     492.252E-03        -1.19620     492.252E-03
            5534               1         1.38380     642.129E-03         1.38380    -642.129E-03
            5535               1         1.03642     231.043E-03         1.03642     231.043E-03
            5536               1         1.97290     476.822E-03        -1.97290    -476.822E-03
            5537               1         1.67174     911.468E-03        -1.67174     911.468E-03
            5538               1     86.5302E-03     342.363E-03     86.5302E-03     342.363E-03
            5539               1     725.092E-03     87.8024E-03     725.092E-03     87.8024E-03
            5540               1     661.650E-03         1.85555    -661.650E-03        -1.85555
            5541               1         2.88818         1.66719        -2.88818         1.66719
            5542               1         1.38539     315.425E-03        -1.38539     315.425E-03
            5543               1     657.758E-03         1.63140     657.758E-03        -1.63140
            5544               1     941.457E-03     103.479E-03     941.457E-03     103.479E-03
            5545               1     667.784E-03     679.143E-03     667.784E-03    -679.143E-03
            5546               1         3.02265         1.17838        -3.02265         1.17838
            5547               1     874.907E-03         1.06473     874.907E-03        -1.06473
            5548               1         1.14235     988.551E-03         1.14235    -988.551E-03
            5549               1     863.011E-03         1.01452    -863.011E-03         1.01452
            5550               1         1.05124     921.525E-03         1.05124    -921.525E-03
            5551               1         3.02130         1.30555         3.02130        -1.30555
            5552               1     290.667E-03     413.737E-03     290.667E-03     413.737E-03
            5553               1     51.7803E-03     669.777E-03     51.7803E-03     669.777E-03
            5554               1         1.00501     465.398E-03        -1.00501    -465.398E-03
            5555               1         1.12178     7.14374E-03         1.12178     7.14374E-03
            5556               1     731.528E-03     513.608E-03     731.528E-03     513.608E-03
            5557               1         1.73790     171.062E-03        -1.73790    -171.062E-03
            5558               1     204.936E-03         1.20241    -204.936E-03         1.20241
            5559               1     791.907E-03     828.056E-03     791.907E-03    -828.056E-03
            5560               1     910.602E-03     998.459E-03    -910.602E-03     998.459E-03
            5561               1         1.01228         2.80447         1.01228        -2.80447
            5562               1     388.893E-03     549.115E-03     388.893E-03     549.115E-03
            5563               1     439.276E-03         1.51370    -439.276E-03        -1.51370
            5564               1         1.26078     836.813E-03         1.26078    -836.813E-03
            5565               1     178.987E-03         1.33322     178.987E-03         1.33322
            5566               1     632.363E-03     904.454E-03    -632.363E-03    -904.454E-03
            5567               1         1.70020     436.995E-03        -1.70020    -436.995E-03
            5568               1     748.751E-03         1.91512     748.751E-03        -1.91512
            5569               1         2.25876         1.14250         2.25876        -1.14250
            5570               1     663.300E-03     651.977E-03    -663.300E-03    -651.977E-03
            5571               1         1.16709     236.323E-03         1.16709    -236.323E-03
            5572               1         1.25738     88.3820E-03         1.25738     88.3820E-03
            5573               1     251.723E-03     659.128E-03    -251.723E-03    -659.128E-03
            5574               1     805.843E-03     367.695E-03     805.843E-03     367.695E-03
            5575               1     949.592E-03         2.07214     949.592E-03        -2.07214
            5576               1         1.04139     815.617E-03        -1.04139     815.617E-03
            5577               1         2.54826         1.78187        -2.54826         1.78187
            5578               1     756.565E-03     861.227E-03     756.565E-03    -861.227E-03
            5579               1     735.811E-03     641.932E-03    -735.811E-03     641.932E-03
            5580               1         1.33610     625.064E-03        -1.33610     625.064E-03
            5581               1     451.332E-03     442.758E-03     451.332E-03     442.758E-03
            5582               1     788.944E-03     483.736E-03    -788.944E-03     483.736E-03
            5583               1     79.4159E-03         1.51874     79.4159E-03        -1.51874
            5584               1         1.04129     980.634E-03         1.04129    -980.634E-03
            5585               1         1.05472         2.73283        -1.05472         2.73283
            5586               1     142.457E-03     47.9380E-03    -142.457E-03     47.9380E-03
            5587               1     650.567E-03         1.63266     650.567E-03        -1.63266
            5588               1         2.01831         1.42149         2.01831        -1.42149
            5589               1         1.22353         3.07879         1.22353        -3.07879
            5590               1     762.967E-03     524.005E-03     762.967E-03     524.005E-03
            5591               1     870.911E-03     991.529E-03     870.911E-03    -991.529E-03
            5592               1     56.3567E-03     163.715E-03    -56.3567E-03    -163.715E-03
            5593               1     429.144E-03     266.898E-03    -429.144E-03    -266.898E-03
            5594               1     656.680E-03     84.3572E-03     656.680E-03    -84.3572E-03
            5595               1         2.26730         1.19764         2.26730        -1.19764
            5596               1     174.600E-03     288.836E-03     174.600E-03     288.836E-03
            5597               1     268.029E-03     764.686E-03     268.029E-03     764.686E-03
            5598               1     35.6319E-03     31.2663E-03    -35.6319E-03    -31.2663E-03
            5599               1     722.824E-03     813.081E-03    -722.824E-03    -813.081E-03
            5600               1     173.936E-03     27.4391E-03    -173.936E-03     27.4391E-03
            5601               1         1.18758     561.294E-03         1.18758    -561.294E-03
            5602               1         1.20164     297.754E-03         1.20164    -297.754E-03
            5603               1     822.130E-03     885.312E-03     822.130E-03    -885.312E-03
            5604               1         1.40905     193.518E-03        -1.40905     193.518E-03
            5605               1     275.627E-03     591.881E-03    -275.627E-03    -591.881E-03
            5606               1     689.278E-03     707.635E-03     689.278E-03    -707.635E-03
            5607               1     785.905E-03     936.721E-03     785.905E-03    -936.721E-03
            5608               1     689.766E-03     828.713E-03     689.766E-03    -828.713E-03
            5609               1         1.02418     971.829E-03         1.02418    -971.829E-03
            5610               1     821.113E-03     824.830E-03    -821.113E-03     824.830E-03
            5611               1     622.437E-03         1.52640    -622.437E-03        -1.52640
            5612               1     505.027E-03         1.15748    -505.027E-03        -1.15748
            5613               1     755.744E-03         1.27955     755.744E-03        -1.27955
            5614               1     554.607E-03         1.63949    -554.607E-03        -1.63949
            5615               1     203.834E-03     142.067E-03     203.834E-03     142.067E-03
            5616               1     623.494E-03     623.863E-03    -623.494E-03     623.863E-03
            5617               1     894.964E-03         1.05950    -894.964E-03         1.05950
            5618               1         1.53107     832.910E-03        -1.53107    -832.910E-03
            5619               1         1.57635     650.763E-03        -1.57635    -650.763E-03
            5620               1         1.34570         2.26141         1.34570        -2.26141
            5621               1         1.67253     129.927E-03        -1.67253     129.927E-03
            5622               1     916.430E-03         1.10011    -916.430E-03        -1.10011
            5623               1         1.17418     483.639E-03        -1.17418    -483.639E-03
            5624               1     721.790E-03         1.44405    -721.790E-03         1.44405
            5625               1         2.16882         1.13217         2.16882        -1.13217
            5626               1     845.642E-03     767.930E-03    -845.642E-03     767.930E-03
            5627               1     754.430E-03     714.886E-03    -754.430E-03     714.886E-03
            5628               1         1.88463         1.04206         1.88463        -1.04206
            5629               1         1.16310     743.633E-03        -1.16310     743.633E-03
            5630               1     687.641E-03     702.817E-03    -687.641E-03     702.817E-03
            5631               1     967.954E-03     834.617E-03    -967.954E-03     834.617E-03
            5632               1     744.889E-03     510.907E-03    -744.889E-03     510.907E-03
            5633               1         2.57156         1.84670        -2.57156         1.84670
            5634               1     261.899E-03     715.382E-03    -261.899E-03     715.382E-03
            5635               1     391.416E-03     293.149E-03     391.416E-03     293.149E-03
            5636               1         1.74565         1.06394        -1.74565         1.06394
            5637               1     393.717E-03     671.698E-03    -393.717E-03    -671.698E-03
            5638               1     564.984E-03         1.77370    -564.984E-03        -1.77370
            5639               1         1.16663     558.433E-03        -1.16663    -558.433E-03
            5640               1         1.33798     584.255E-03        -1.33798    -584.255E-03
            5641               1         1.89464         1.30676        -1.89464         1.30676
            5642               1         1.79981         2.53731         1.79981        -2.53731
            5643               1     911.389E-03     358.082E-03    -911.389E-03     358.082E-03
            5644               1     989.450E-03     294.780E-03     989.450E-03     294.780E-03
            5645               1     561.333E-03         1.83418     561.333E-03        -1.83418
            5646               1     611.606E-03     699.902E-03    -611.606E-03    -699.902E-03
            5647               1         1.11325     84.1430E-03         1.11325    -84.1430E-03
            5648               1         1.54003         2.37084         1.54003        -2.37084
            5649               1         1.08779         1.68489        -1.08779         1.68489
            5650               1     793.205E-03         1.00296     793.205E-03        -1.00296
            5651               1     961.198E-03     257.836E-03     961.198E-03     257.836E-03
            5652               1         1.00468     875.251E-03         1.00468    -875.251E-03
            5653               1     642.228E-03     652.477E-03     642.228E-03    -652.477E-03
            5654               1         1.62581     208.195E-03        -1.62581    -208.195E-03
            5655               1         2.30983         1.54192        -2.30983         1.54192
            5656               1     49.2490E-03         1.72391    -49.2490E-03        -1.72391
            5657               1         2.52790         1.85322        -2.52790         1.85322
            5658               1     661.126E-03     624.474E-03     661.126E-03    -624.474E-03
            5659               1         1.21987         1.01131        -1.21987         1.01131
            5660               1         2.13998         1.55690         2.13998        -1.55690
            5661               1         1.48495     539.662E-03        -1.48495     539.662E-03
            5662               1     922.707E-03     696.181E-03    -922.707E-03     696.181E-03
            5663               1     879.823E-03         1.11377     879.823E-03        -1.11377
            5664               1         1.00323         2.74787         1.00323        -2.74787
            5665               1     740.947E-03         1.03579    -740.947E-03         1.03579
            5666               1         1.12223     210.068E-03         1.12223     210.068E-03
            5667               1         1.18622         1.21934        -1.18622         1.21934
            5668               1         1.85737     992.726E-03         1.85737    -992.726E-03
            5669               1     60.1222E-03         1.68789     60.1222E-03        -1.68789
            5670               1     760.382E-03         1.95237     760.382E-03        -1.95237
            5671               1     551.629E-03         1.77544    -551.629E-03        -1.77544
            5672               1     703.223E-03     136.695E-03     703.223E-03     136.695E-03
            5673               1     157.777E-03     305.889E-03     157.777E-03     305.889E-03
            5674               1         2.03148         1.33958         2.03148        -1.33958
            5675               1         1.02102     596.676E-03         1.02102    -596.676E-03
            5676               1         1.00008     549.796E-03         1.00008    -549.796E-03
            5677               1         1.21934         1.18622         1.21934        -1.18622
            5678               1     875.318E-03     846.296E-03     875.318E-03    -846.296E-03
            5679               1     838.440E-03     942.179E-03    -838.440E-03     942.179E-03
            5680               1     671.903E-03     759.714E-03     671.903E-03    -759.714E-03
            5681               1         1.10140         2.90997        -1.10140         2.90997
            5682               1     784.067E-03         1.02218    -784.067E-03         1.02218
            5683               1         1.11773     813.601E-03         1.11773    -813.601E-03
            5684               1         1.11496         1.32480        -1.11496         1.32480
            5685               1     721.528E-03     708.631E-03    -721.528E-03     708.631E-03
            5686               1         1.15064         2.92731        -1.15064         2.92731
            5687               1         2.03070         1.93150        -2.03070         1.93150
            5688               1         1.11532         1.78988         1.11532        -1.78988
            5689               1     721.806E-03     767.085E-03     721.806E-03    -767.085E-03
            5690               1         1.63094     403.485E-03        -1.63094    -403.485E-03
            5691               1     939.840E-03     509.688E-03    -939.840E-03     509.688E-03
            5692               1         1.69722     131.363E-03        -1.69722    -131.363E-03
            5693               1         1.65156         1.65652         1.65156        -1.65652
            5694               1     334.440E-03         1.90308    -334.440E-03        -1.90308
            5695               1         1.16035     402.936E-03        -1.16035     402.936E-03
            5696               1         1.69146         1.63398         1.69146        -1.63398
            5697               1     27.5544E-03         1.70679    -27.5544E-03        -1.70679
            5698               1         1.57061         2.32272         1.57061        -2.32272
            5699               1         1.09005     776.409E-03         1.09005    -776.409E-03
            5700               1         1.37652         2.32538         1.37652        -2.32538
            5701               1     407.508E-03     885.172E-03     407.508E-03     885.172E-03
            5702               1         1.84825         1.38016         1.84825        -1.38016
            5703               1     752.430E-03     827.174E-03    -752.430E-03     827.174E-03
            5704               1         1.99925         1.91025         1.99925        -1.91025
            5705               1     836.813E-03         1.26078    -836.813E-03         1.26078
            5706               1     584.868E-03         1.09494     584.868E-03        -1.09494
            5707               1         2.02187         1.12406         2.02187        -1.12406
            5708               1     421.498E-03     363.308E-03    -421.498E-03    -363.308E-03
            5709               1     830.497E-03         1.44739     830.497E-03        -1.44739
            5710               1     882.709E-03     984.004E-03    -882.709E-03     984.004E-03
            5711               1         1.76272         2.50991         1.76272        -2.50991
            5712               1         1.45518     530.998E-03        -1.45518     530.998E-03
            5713               1         1.20861     842.058E-03         1.20861    -842.058E-03
            5714               1     582.614E-03     604.018E-03     582.614E-03    -604.018E-03
            5715               1     725.065E-03         1.30098    -725.065E-03         1.30098
            5716               1         1.33149         3.13344        -1.33149         3.13344
            5717               1         1.33091     553.262E-03        -1.33091    -553.262E-03
            5718               1     144.311E-03     411.945E-03     144.311E-03    -411.945E-03
            5719               1         1.34456     769.374E-03        -1.34456    -769.374E-03
            5720               1         2.15272         1.28752        -2.15272         1.28752
            5721               1     858.819E-03     723.730E-03    -858.819E-03     723.730E-03
            5722               1         1.79242         1.72959         1.79242        -1.72959
            5723               1         1.87308         1.62618         1.87308        -1.62618
            5724               1     115.602E-03         1.72153     115.602E-03        -1.72153
            5725               1     187.421E-03     514.134E-03     187.421E-03     514.134E-03
            5726               1     290.569E-03         1.06666     290.569E-03        -1.06666
            5727               1         1.11425         2.50919         1.11425        -2.50919
            5728               1     394.907E-03         1.81945     394.907E-03        -1.81945
            5729               1         1.49608         2.34627         1.49608        -2.34627
            5730               1     415.775E-03         1.78332    -415.775E-03        -1.78332
            5731               1     448.255E-03     411.205E-03     448.255E-03     411.205E-03
            5732               1     234.892E-03         1.41324     234.892E-03        -1.41324
            5733               1     751.383E-03     843.100E-03     751.383E-03    -843.100E-03
            5734               1         2.23181     180.421E-03        -2.23181     180.421E-03
            5735               1     615.647E-03     924.605E-03    -615.647E-03     924.605E-03
            5736               1         1.67631         1.11544         1.67631        -1.11544
            5737               1         2.20847     112.802E-03        -2.20847     112.802E-03
            5738               1         2.07976         1.39153        -2.07976         1.39153
            5739               1         1.05092         2.77557        -1.05092         2.77557
            5740               1     864.858E-03     106.785E-03    -864.858E-03     106.785E-03
            5741               1     112.802E-03         2.20847     112.802E-03        -2.20847
            5742               1         2.70245         1.48453         2.70245        -1.48453
            5743               1     818.051E-03     323.711E-03     818.051E-03     323.711E-03
            5744               1         1.61222     218.793E-03        -1.61222    -218.793E-03
            5745               1         1.15010     82.2327E-03         1.15010    -82.2327E-03
            5746               1         1.17745     501.882E-03        -1.17745    -501.882E-03
            5747               1         1.19902     771.884E-03        -1.19902     771.884E-03
            5748               1     391.191E-03         1.69539     391.191E-03        -1.69539
            5749               1         1.21824     24.3646E-03         1.21824     24.3646E-03
            5750               1     707.196E-03         1.66268    -707.196E-03        -1.66268
            5751               1     377.565E-03     935.470E-03     377.565E-03     935.470E-03
            5752               1     787.118E-03         1.14680    -787.118E-03         1.14680
            5753               1         1.84501     386.241E-03        -1.84501     386.241E-03
            5754               1         2.45503         1.87400         2.45503        -1.87400
            5755               1         1.59979         1.91958        -1.59979         1.91958
            5756               1     205.747E-03     26.0527E-03    -205.747E-03     26.0527E-03
            5757               1     625.250E-03         1.29119    -625.250E-03        -1.29119
            5758               1     277.153E-03     467.903E-03    -277.153E-03    -467.903E-03
            5759               1     518.297E-03         1.26745    -518.297E-03        -1.26745
            5760               1     446.252E-03         1.45989    -446.252E-03        -1.45989
            5761               1         1.10992     417.953E-03         1.10992    -417.953E-03
            5762               1     764.286E-03     846.781E-03     764.286E-03    -846.781E-03
            5763               1     526.357E-03         1.26274    -526.357E-03        -1.26274
            5764               1     812.809E-03     765.027E-03     812.809E-03    -765.027E-03
            5765               1         2.49121         1.74342        -2.49121         1.74342
            5766               1     734.363E-03     671.760E-03    -734.363E-03     671.760E-03
            5767               1         1.95988         2.60331        -1.95988         2.60331
            5768               1     411.945E-03     144.311E-03    -411.945E-03     144.311E-03
            5769               1         2.67696         1.95820        -2.67696         1.95820
            5770               1         1.38217         3.17447        -1.38217         3.17447
            5771               1     963.307E-03     681.989E-03    -963.307E-03     681.989E-03
            5772               1         1.08699     456.687E-03        -1.08699    -456.687E-03
            5773               1         1.17785     15.7564E-03         1.17785     15.7564E-03
            5774               1         1.51370     439.276E-03        -1.51370    -439.276E-03
            5775               1     685.894E-03     712.421E-03    -685.894E-03     712.421E-03
            5776               1         2.44717         1.82035        -2.44717         1.82035
            5777               1     83.9205E-03     877.670E-03     83.9205E-03    -877.670E-03
            5778               1     914.906E-03     98.8843E-03     914.906E-03     98.8843E-03
            5779               1     558.433E-03         1.16663    -558.433E-03        -1.16663
            5780               1     279.795E-03     357.481E-03    -279.795E-03    -357.481E-03
            5781               1     197.980E-03         1.23253     197.980E-03         1.23253
            5782               1         1.23427     875.787E-03         1.23427    -875.787E-03
            5783               1         1.15553     193.797E-03         1.15553     193.797E-03
            5784               1         1.12206     495.944E-03        -1.12206    -495.944E-03
            5785               1         1.15815     109.046E-03         1.15815     109.046E-03
            5786               1     305.304E-03         1.96973    -305.304E-03        -1.96973
            5787               1     247.473E-03         1.15419     247.473E-03         1.15419
            5788               1     790.730E-03     767.419E-03     790.730E-03    -767.419E-03
            5789               1         1.74342         2.49121         1.74342        -2.49121
            5790               1     676.130E-03     702.398E-03     676.130E-03    -702.398E-03
            5791               1         1.74403         2.49373         1.74403        -2.49373
            5792               1     935.127E-03     295.683E-03     935.127E-03     295.683E-03
            5793               1         1.67306         1.57110         1.67306        -1.57110
            5794               1         1.20258         1.67200         1.20258        -1.67200
            5795               1     616.886E-03     866.976E-03     616.886E-03    -866.976E-03
            5796               1     736.915E-03         1.67331    -736.915E-03        -1.67331
            5797               1     433.045E-03     541.909E-03     433.045E-03     541.909E-03
            5798               1     119.953E-03         1.69651    -119.953E-03        -1.69651
            5799               1     102.531E-03         1.22904     102.531E-03         1.22904
            5800               1         1.49926         1.59418         1.49926        -1.59418
            5801               1         1.01532     153.964E-03         1.01532     153.964E-03
            5802               1     423.700E-03     922.828E-03    -423.700E-03     922.828E-03
            5803               1         1.71534     587.649E-03        -1.71534    -587.649E-03
            5804               1         1.62164     568.411E-03        -1.62164    -568.411E-03
            5805               1         1.67257     692.383E-03        -1.67257    -692.383E-03
            5806               1     274.530E-03         1.90427    -274.530E-03        -1.90427
            5807               1     362.804E-03         1.62136    -362.804E-03        -1.62136
            5808               1     314.365E-03         1.71796    -314.365E-03        -1.71796
            5809               1         1.87245         1.31860         1.87245        -1.31860
            5810               1         1.53304         1.55089         1.53304        -1.55089
            5811               1     555.501E-03     868.086E-03     555.501E-03    -868.086E-03
            5812               1         2.13612         2.03420         2.13612        -2.03420
            5813               1         1.32480         1.11496         1.32480        -1.11496
            5814               1         1.14025     249.918E-03         1.14025    -249.918E-03
            5815               1     14.0028E-03         1.58830     14.0028E-03         1.58830
            5816               1     1.60843E-03         1.45834     1.60843E-03        -1.45834
            5817               1         1.49807     514.097E-03        -1.49807    -514.097E-03
            5818               1         1.16598         1.11846        -1.16598         1.11846
            5819               1         1.30700         1.94858         1.30700        -1.94858
            5820               1         1.12262     592.951E-03         1.12262    -592.951E-03
            5821               1         1.00162         1.41986        -1.00162         1.41986
            5822               1         1.47976         2.00209         1.47976        -2.00209
            5823               1     408.587E-03         1.35675    -408.587E-03        -1.35675
            5824               1         1.16506     105.375E-03         1.16506    -105.375E-03
            5825               1         1.96973     305.304E-03        -1.96973    -305.304E-03
            5826               1         1.10730     231.814E-03         1.10730    -231.814E-03
            5827               1     207.429E-03         1.15447     207.429E-03         1.15447
            5828               1     584.794E-03     262.072E-03    -584.794E-03    -262.072E-03
            5829               1     538.688E-03     893.264E-03    -538.688E-03     893.264E-03
            5830               1     875.787E-03         1.23427    -875.787E-03         1.23427
            5831               1         1.36332         1.09927         1.36332        -1.09927
            5832               1     623.800E-03         1.59312    -623.800E-03        -1.59312
            5833               1     543.963E-03     507.913E-03     543.963E-03    -507.913E-03
            5834               1     472.499E-03     417.298E-03    -472.499E-03    -417.298E-03
            5835               1     430.012E-03         1.43968     430.012E-03        -1.43968
            5836               1     672.352E-03         1.51653    -672.352E-03        -1.51653
            5837               1     66.3970E-03     92.7994E-03    -66.3970E-03    -92.7994E-03
            5838               1         1.04701     122.037E-03         1.04701    -122.037E-03
            5839               1         1.72410     342.926E-03        -1.72410    -342.926E-03
            5840               1     782.316E-03     766.532E-03    -782.316E-03     766.532E-03
            5841               1         1.67813     572.289E-03        -1.67813    -572.289E-03
            5842               1     676.534E-03     427.444E-03     676.534E-03     427.444E-03
            5843               1     844.211E-03     203.062E-03     844.211E-03     203.062E-03
            5844               1         1.31744     911.490E-03        -1.31744    -911.490E-03
            5845               1         1.96498         2.68050        -1.96498         2.68050
            5846               1         1.71632         2.49233        -1.71632         2.49233
            5847               1     537.772E-03         1.13765     537.772E-03        -1.13765
            5848               1         1.18753     412.095E-03         1.18753    -412.095E-03
            5849               1         1.11648     409.672E-03         1.11648    -409.672E-03
            5850               1     268.632E-03         1.73608    -268.632E-03        -1.73608
            5851               1         1.22158     98.8547E-03         1.22158     98.8547E-03
            5852               1     550.882E-03         1.70083     550.882E-03        -1.70083
            5853               1         1.48411     768.259E-03        -1.48411    -768.259E-03
            5854               1     234.971E-03     625.557E-03    -234.971E-03     625.557E-03
            5855               1     196.927E-03         1.19549     196.927E-03         1.19549
            5856               1     379.453E-03         1.58115    -379.453E-03        -1.58115
            5857               1     996.846E-03         1.48751     996.846E-03        -1.48751
            5858               1         1.04250     866.278E-03        -1.04250     866.278E-03
            5859               1     669.313E-03     939.251E-03     669.313E-03    -939.251E-03
            5860               1     666.583E-03         1.62985     666.583E-03        -1.62985
            5861               1         1.33866         1.87663         1.33866        -1.87663
            5862               1     373.355E-03         1.87277    -373.355E-03        -1.87277
            5863               1         1.02008         1.31826        -1.02008        -1.31826
            5864               1         1.55980     711.227E-03        -1.55980     711.227E-03
            5865               1         1.48288     153.740E-03        -1.48288     153.740E-03
            5866               1         1.62386         1.74999         1.62386        -1.74999
            5867               1     643.450E-03         1.54376    -643.450E-03        -1.54376
            5868               1     948.709E-03         1.37014    -948.709E-03        -1.37014
            5869               1     77.1372E-03     416.429E-03    -77.1372E-03    -416.429E-03
            5870               1         1.51874     79.4159E-03        -1.51874     79.4159E-03
            5871               1     253.795E-03         1.15482     253.795E-03         1.15482
            5872               1     773.863E-03     492.037E-03    -773.863E-03    -492.037E-03
            5873               1         2.27610         1.90338         2.27610        -1.90338
            5874               1     390.438E-03     170.775E-03    -390.438E-03    -170.775E-03
            5875               1     112.610E-03         1.24888     112.610E-03         1.24888
            5876               1         2.40799         1.56215         2.40799        -1.56215
            5877               1     997.011E-03     920.146E-03     997.011E-03    -920.146E-03
            5878               1     1.20558E-03     700.178E-03     1.20558E-03    -700.178E-03
            5879               1         2.14134         1.21618         2.14134        -1.21618
            5880               1     261.672E-03     839.329E-03    -261.672E-03    -839.329E-03
            5881               1     264.698E-03         1.10032     264.698E-03         1.10032
            5882               1     879.428E-03         1.08820    -879.428E-03        -1.08820
            5883               1     243.235E-03     52.8281E-03    -243.235E-03    -52.8281E-03
            5884               1     933.667E-03         1.68657     933.667E-03        -1.68657
            5885               1     231.363E-03         1.76779    -231.363E-03        -1.76779
            5886               1     24.1844E-03         1.17295     24.1844E-03         1.17295
            5887               1         1.20947     972.206E-03        -1.20947     972.206E-03
            5888               1     325.680E-03         1.06055     325.680E-03         1.06055
            5889               1     524.439E-03         1.59510    -524.439E-03        -1.59510
            5890               1         1.52640     622.437E-03        -1.52640    -622.437E-03
            5891               1     739.414E-03     993.721E-03    -739.414E-03     993.721E-03
            5892               1         2.14896         2.12193         2.14896        -2.12193
            5893               1         1.13121     675.734E-03        -1.13121     675.734E-03
            5894               1         1.39946     903.211E-03         1.39946    -903.211E-03
            5895               1     455.605E-03         1.37957    -455.605E-03        -1.37957
            5896               1     794.107E-03         1.13893     794.107E-03        -1.13893
            5897               1         1.82035         2.44717         1.82035        -2.44717
            5898               1         1.18338     2.68239E-03         1.18338    -2.68239E-03
            5899               1         1.13784         1.79938         1.13784        -1.79938
            5900               1     344.652E-03     688.800E-03    -344.652E-03    -688.800E-03
            5901               1         1.25294     373.616E-03        -1.25294    -373.616E-03
            5902               1         1.99113         2.18885        -1.99113         2.18885
            5903               1         1.75906     173.926E-03        -1.75906     173.926E-03
            5904               1         1.53794     446.372E-03        -1.53794    -446.372E-03
            5905               1     912.961E-03     324.309E-03     912.961E-03     324.309E-03
            5906               1     387.428E-03     341.816E-03     387.428E-03     341.816E-03
            5907               1         2.20528         1.68347         2.20528        -1.68347
            5908               1     103.409E-03     241.162E-03    -103.409E-03    -241.162E-03
            5909               1     431.298E-03     843.370E-03    -431.298E-03     843.370E-03
            5910               1     417.298E-03     472.499E-03    -417.298E-03    -472.499E-03
            5911               1         1.41755         1.45998         1.41755        -1.45998
            5912               1     148.693E-03         1.72651    -148.693E-03        -1.72651
            5913               1     116.154E-03         1.11139    -116.154E-03         1.11139
            5914               1     418.380E-03         1.83021     418.380E-03        -1.83021
            5915               1         1.30289     861.787E-03        -1.30289    -861.787E-03
            5916               1     156.445E-03     24.4798E-03    -156.445E-03     24.4798E-03
            5917               1     24.3548E-03     94.9064E-03     24.3548E-03    -94.9064E-03
            5918               1     920.146E-03     997.011E-03    -920.146E-03     997.011E-03
            5919               1     282.951E-03     630.398E-03     282.951E-03     630.398E-03
            5920               1         1.52115     687.112E-03        -1.52115    -687.112E-03
            5921               1     436.154E-03     861.312E-03     436.154E-03     861.312E-03
            5922               1         1.16948         2.15446        -1.16948         2.15446
            5923               1     635.357E-03         1.51832     635.357E-03        -1.51832
            5924               1     245.062E-03         1.23603     245.062E-03         1.23603
            5925               1         1.16416         1.70266         1.16416        -1.70266
            5926               1         1.38015         1.47007         1.38015        -1.47007
            5927               1         1.49138         2.40183        -1.49138         2.40183
            5928               1     89.9069E-03     52.4136E-03     89.9069E-03    -52.4136E-03
            5929               1         1.30865         2.34262         1.30865        -2.34262
            5930               1     471.930E-03         1.49131    -471.930E-03        -1.49131
            5931               1         1.42456         1.16200        -1.42456         1.16200
            5932               1         1.74637         1.92064         1.74637        -1.92064
            5933               1     357.481E-03     279.795E-03    -357.481E-03    -279.795E-03
            5934               1     741.045E-03     384.131E-03    -741.045E-03     384.131E-03
            5935               1         1.63957     694.049E-03        -1.63957    -694.049E-03
            5936               1     777.746E-03     594.645E-03    -777.746E-03     594.645E-03
            5937               1         1.53606     581.788E-03        -1.53606    -581.788E-03
            5938               1         1.69539     391.191E-03        -1.69539     391.191E-03
            5939               1         1.83256         2.09988        -1.83256         2.09988
            5940               1         1.52870         2.43015        -1.52870         2.43015
            5941               1     405.496E-03     371.569E-03     405.496E-03    -371.569E-03
            5942               1     969.602E-03     987.423E-03    -969.602E-03     987.423E-03
            5943               1     320.482E-03     656.759E-03     320.482E-03     656.759E-03
            5944               1     32.7360E-03     100.793E-03     32.7360E-03    -100.793E-03
            5945               1         1.98679         1.99386        -1.98679         1.99386
            5946               1         1.28331         1.21278        -1.28331         1.21278
            5947               1     91.4444E-03     151.263E-03    -91.4444E-03    -151.263E-03
            5948               1         1.15693         1.22244        -1.15693         1.22244
            5949               1     403.612E-03     503.276E-03     403.612E-03    -503.276E-03


  Minimum                            210.290E-06     210.290E-06        -8.47175        -8.16139
      At Element                            2913            1350            3973            4249
          Int Pt                               1               1               1               1

  Maximum                                8.47175         8.16139         5.33509         4.95427
      At Element                            3973            4249            2176            4346
          Int Pt                               1               1               1               1

           Total                     7.22439E+03     6.54029E+03        -120.136    -1.55909E+03


