********************************************************************************
Field Output Report, written Fri Jun 21 17:02:34 2019

Source 1
---------

   ODB: C:/Users/maduguls/Documents/Sashi_Kiran/BL2D/Code_Isotropic/auto_inp.odb
   Step: Step-1
   Frame: Increment      1: Step Time =   2.2200E-16

Loc 1 : Integration point values from source 1

Output sorted by column "Element Label".

Field Output reported at integration points for part: PART-1-1

   Element Label             Int         S.Mises           S.S11           S.S12           S.S22
                              Pt          @Loc 1          @Loc 1          @Loc 1          @Loc 1
-------------------------------------------------------------------------------------------------
               1               1         20.0692         19.6371        -2.20948    -126.987E-03
               2               1         41.1824        -41.1503    -229.396E-03     60.3280E-03
               3               1         10.3650        -8.52263         3.67100    -721.749E-03
               4               1     714.393E-03    -443.303E-03    -7.96347E-03     380.659E-03
               5               1         50.4587         50.5015     61.6491E-03     85.9297E-03
               6               1         36.4146         36.1157    -717.092E-03    -549.052E-03
               7               1         20.7493        -20.3483        -2.45256    -77.2131E-03
               8               1         43.5019         43.4307     40.7053E-03    -141.930E-03
               9               1         1.53060     559.881E-03     190.596E-03        -1.13380
              10               1         33.2824        -33.1200        -2.00963    -40.2799E-03
              11               1         43.1849         43.0922    -264.496E-03    -179.955E-03
              12               1         37.2470        -37.5225         3.15937        -1.39922
              13               1         33.6407         33.5037        -1.82420     23.4590E-03
              14               1         41.9001        -41.9641    -297.528E-03    -134.597E-03
              15               1         44.9777        -44.9924     317.704E-03    -36.0407E-03
              16               1         35.0548        -35.2096         2.61553    -915.656E-03
              17               1         41.9368        -41.8741    -190.977E-03     122.451E-03
              18               1         50.5322         50.5579    -57.6126E-03     51.6458E-03
              19               1         31.4496        -26.0698         3.38433        -34.1297
              20               1         43.3434         43.4869    -1.60975E-03     288.361E-03
              21               1         29.3741         29.0988        -1.61597    -281.166E-03
              22               1         27.3608        -24.4664         7.29057    -392.514E-03
              23               1         41.6531        -42.2030    -715.126E-03        -1.16090
              24               1         16.3031         8.36310        -5.70455        -6.57522
              25               1         63.8764        -56.2735        -23.8377        -27.4627
              26               1         48.3012        -48.3442     8.03536E-03    -86.2005E-03
              27               1         46.5307        -46.4406         1.49336     36.4423E-03
              28               1         4.97212        -1.84345         2.69507    -302.885E-03
              29               1         47.0499        -47.0569     231.336E-03    -17.4254E-03
              30               1         28.5866         28.0960         2.37876    -380.458E-03
              31               1         50.5520         50.6111    -2.18193E-03     118.322E-03
              32               1         47.9669        -47.9728    -117.240E-03    -12.7280E-03
              33               1         12.0443        -2.03817        -5.74236        -7.57851
              34               1         43.3862        -43.3747    -3.87501E-03     23.0011E-03
              35               1         33.3487        -31.4680         8.19369        -2.77042
              36               1         50.2793         50.3570     144.584E-03     157.080E-03
              37               1         43.4547         43.5412     120.295E-03     174.378E-03
              38               1         49.7387         49.7574     245.697E-03     41.0825E-03
              39               1         14.9780        -14.0680        -3.06528    -125.992E-03
              40               1         42.9170        -44.1510        -6.97346        -6.77863
              41               1         42.3069        -42.2425     33.9990E-03     128.588E-03
              42               1         22.2222         17.7541         7.26623        -1.07409
              43               1         10.7660         3.78627        -1.95930        -7.78355
              44               1         50.6433         50.6643     85.7658E-03     42.4266E-03
              45               1         20.4063        -5.99299         10.4866         4.72196
              46               1         29.4028        -28.8383    -343.016E-03         1.08686
              47               1         19.9320         19.4731         2.21256    -172.777E-03
              48               1         25.0002         23.4824         4.46656    -571.040E-03
              49               1         26.9361        -26.7587         2.01219    -98.1996E-03
              50               1         42.0990        -42.0377    -54.7439E-03     122.103E-03
              51               1         52.7413        -49.6156        -9.78468     650.867E-03
              52               1         35.7044         35.0640         3.40811    -296.165E-03
              53               1         42.3019        -42.2398     68.0373E-03     123.539E-03
              54               1         20.9560        -20.5494         2.48163    -78.1472E-03
              55               1         103.053        -87.7707        -39.7544        -53.9355
              56               1         11.1745         3.57715         2.18191        -8.26078
              57               1         15.2014        -14.3088         3.08016    -149.802E-03
              58               1         25.4357        -24.8810         2.28988     480.318E-03
              59               1         35.6328        -35.5447    -150.384E-03     173.551E-03
              60               1         14.6631         1.58253         7.25646        -6.63569
              61               1         12.1342        -10.3444        -3.40448     503.500E-03
              62               1         48.2691        -48.3045    -42.7365E-03    -70.9145E-03
              63               1         90.1156        -36.0303         43.8788        -55.0441
              64               1         41.5474         41.2495        -1.58957    -410.049E-03
              65               1         45.4192        -45.5006    -286.026E-03    -168.729E-03
              66               1         44.4825        -44.5612    -94.1734E-03    -158.518E-03
              67               1         30.2924         29.6400     584.279E-03        -1.23343
              68               1         41.4695        -41.4113    -330.998E-03     108.357E-03
              69               1         49.6472         49.7702     78.0394E-03     247.187E-03
              70               1         43.5535         43.4799     4.76798E-03    -146.868E-03
              71               1         37.8250         37.6732        -1.49330    -126.151E-03
              72               1         30.1889         29.6671     963.417E-03    -929.766E-03
              73               1         1.44062     363.447E-03     63.2422E-03        -1.21982
              74               1         43.7306         43.6794    -973.772E-03    -37.2648E-03
              75               1         43.7397         43.6633    -200.575E-03    -149.651E-03
              76               1         29.7242         29.2351     638.835E-03    -915.849E-03
              77               1         36.9951         37.3764    -40.5233E-03     774.777E-03
              78               1         47.7518         47.7308    -611.776E-03    -18.4051E-03
              79               1         16.5350         4.17109        -8.52975        -4.40196
              80               1         19.6109        -18.6843         2.82836     595.596E-03
              81               1         43.7147         43.6396     132.860E-03    -148.725E-03
              82               1         41.3033        -41.2672     315.480E-03     64.7518E-03
              83               1         32.3977         32.1832        -1.21505    -290.255E-03
              84               1         50.5297         50.5692    -39.2268E-03     79.3298E-03
              85               1         48.0329        -50.2489         5.53794        -7.19582
              86               1         43.8998         43.8192     22.2769E-03    -160.770E-03
              87               1         43.3399         43.5901    -36.3225E-03     504.881E-03
              88               1         43.2025        -43.1928    -96.9261E-03     18.5891E-03
              89               1         44.8792        -44.9249    -205.866E-03    -94.4845E-03
              90               1         41.9079        -40.2638        -11.4143        -7.90351
              91               1         47.5385        -47.5814    -197.626E-03    -88.5123E-03
              92               1         43.9797         44.0797     59.7730E-03     201.002E-03
              93               1         85.8766        -33.9522         41.6572        -53.0906
              94               1         35.0939         34.8311         1.39240    -357.064E-03
              95               1         38.1276         38.0186    -705.480E-03    -178.173E-03
              96               1         32.4183         32.2073         1.19675    -287.463E-03
              97               1         40.6816         40.7523         1.17161     243.593E-03
              98               1         1.41262     361.040E-03    -41.0992E-03        -1.19522
              99               1         19.4713        -18.5300        -2.82073     621.412E-03
             100               1         17.8969        -11.3479        -7.85237     550.292E-03
             101               1         22.3237         6.75139         12.0507        -1.96333
             102               1         17.0154         8.74518         6.04934        -6.69004
             103               1     730.966E-03    -320.459E-03     18.3303E-03     515.258E-03
             104               1         32.6188         31.5802        -4.30715    -345.247E-03
             105               1         2.93959        -1.38045        -1.53933    -368.732E-03
             106               1         35.7608        -35.6364     138.875E-03     245.870E-03
             107               1         2.06760     847.982E-03    -673.222E-03        -1.11744
             108               1         42.3602        -42.2992     12.2639E-03     121.742E-03
             109               1         35.8190        -36.7908        -1.23833        -2.17116
             110               1         48.1155        -48.1455    -21.1809E-03    -60.1468E-03
             111               1         23.5252         22.9681         2.49636    -309.635E-03
             112               1         28.8391         28.5513         2.06581    -129.480E-03
             113               1         21.0773        -3.45978         11.9584     772.708E-03
             114               1         49.6773         49.7346    -294.650E-03     120.032E-03
             115               1         24.9805         23.5405        -4.29866    -597.922E-03
             116               1         34.6858        -34.8818        -2.53615    -971.030E-03
             117               1         14.0373         13.2569         2.71838     65.8329E-03
             118               1         23.6619         23.1131        -2.48364    -305.885E-03
             119               1         36.9496         36.7593    -433.480E-03    -362.673E-03
             120               1         30.1001        -29.8221        -2.03168     142.707E-03
             121               1         17.4195         15.2636         3.80740        -1.59965
             122               1         63.7330        -60.5759        -20.8659        -32.1989
             123               1         43.6611         43.8525    -255.555E-03     389.800E-03
             124               1         35.9306        -36.4405     58.2425E-03        -1.04283
             125               1         42.3275        -42.4465     34.7382E-03    -239.144E-03
             126               1         49.8124         49.9182    -146.101E-03     213.612E-03
             127               1         35.6876        -35.4783    -390.487E-03     402.508E-03
             128               1         45.7148        -45.7340     289.052E-03    -43.9452E-03
             129               1         44.1141         44.0362     26.6738E-03    -155.408E-03
             130               1         49.5093         49.5379     28.9517E-03     57.1323E-03
             131               1         44.0980         44.0229    -8.32613E-03    -149.992E-03
             132               1         23.3111        -20.6301         6.69627    -844.555E-03
             133               1         49.5928         49.6572     32.3977E-03     129.022E-03
             134               1         29.0093         25.9593        -6.49110        -1.50207
             135               1         19.7855         12.0725        -8.53680        -1.93407
             136               1         52.0567        -47.8473        -11.2017     904.540E-03
             137               1         48.2774        -48.3101     52.3314E-03    -65.7965E-03
             138               1         48.2219        -48.3095     5.31150E-03    -175.544E-03
             139               1         35.7019        -35.5275     10.5369E-03     346.362E-03
             140               1         50.3216         50.3292    -171.575E-03     16.9314E-03
             141               1         21.5731        -3.44563        -12.2030         1.40044
             142               1         28.5805         27.7726        -3.53192    -288.883E-03
             143               1         41.3070        -41.2570     264.353E-03     94.8269E-03
             144               1         30.5613         30.1396    -131.728E-03    -825.057E-03
             145               1         30.1724         29.0860         3.64283    -821.432E-03
             146               1         42.0596        -41.9986     142.691E-03     120.152E-03
             147               1         49.5483         49.6279    -95.0465E-03     159.986E-03
             148               1         37.8258         37.2939         2.66600    -493.122E-03
             149               1         36.8335         37.3642     36.5022E-03         1.08549
             150               1         29.7253        -29.3518        -1.12613     609.506E-03
             151               1         44.1932        -44.3810     114.574E-03    -378.958E-03
             152               1         44.0097         44.1267    -137.174E-03     236.338E-03
             153               1         28.5178        -28.1739         1.38147     480.692E-03
             154               1         18.7093        -14.4757        -7.13522    -901.895E-03
             155               1         24.0102         22.4287         5.02010     96.7717E-03
             156               1         32.7551         31.2037         3.89416        -1.63629
             157               1         32.4773         1.73476         15.6482        -16.9629
             158               1         36.7900         36.6322    -58.9060E-03    -313.272E-03
             159               1         47.7097        -47.7899     126.075E-03    -161.758E-03
             160               1         42.3293        -42.2673    -16.6911E-03     123.755E-03
             161               1         37.1082         36.9830    -382.261E-03    -237.545E-03
             162               1         41.7479        -41.9273     340.297E-03    -369.497E-03
             163               1         41.8333        -41.8137     341.868E-03     30.6638E-03
             164               1         43.1599         43.0803     206.432E-03    -155.813E-03
             165               1         48.0624        -50.2419        -5.33380        -6.91469
             166               1         30.2280        -29.9816         2.08107     61.3751E-03
             167               1         44.0098         43.9325     154.062E-03    -152.553E-03
             168               1         41.8230        -41.7631     84.6420E-03     119.039E-03
             169               1         51.4202        -47.1608         11.4723     525.400E-03
             170               1         47.5698         47.6234     534.942E-03     125.454E-03
             171               1         44.3367        -44.9540     721.499E-03        -1.29830
             172               1         34.2331         2.55704     693.973E-03        -32.8617
             173               1         42.0092        -42.1226     342.286E-03    -236.156E-03
             174               1         41.6664        -41.6071     172.882E-03     116.334E-03
             175               1         47.4569        -47.4823     139.766E-03    -52.1407E-03
             176               1         41.6112         41.4968     569.032E-03    -204.643E-03
             177               1         43.1450        -44.4359         6.95710        -6.87589
             178               1         40.9577        -42.0718         10.7988        -21.4387
             179               1         35.7073        -36.5715     935.617E-03        -1.87593
             180               1         23.1004         13.8751        -10.2293        -1.74132
             181               1         12.3968        -10.5692         3.43760     584.499E-03
             182               1         44.0404         44.1576    -45.2982E-03     235.438E-03
             183               1         42.2285        -42.4282     11.5006E-03    -402.228E-03
             184               1         37.1665         37.0498     144.209E-03    -230.557E-03
             185               1         114.210        -8.64115        -2.08139        -118.228
             186               1         80.9437        -33.4129        -40.2761        -45.8280
             187               1         29.4240        -29.1782    -189.127E-03     482.059E-03
             188               1         19.3857        -8.45321        -8.77508         5.32369
             189               1         24.9181         23.2294        -4.47268    -883.004E-03
             190               1         29.4758         27.8263         5.05182    -631.095E-03
             191               1         24.9926         24.6695         1.78276    -261.089E-03
             192               1         33.4037         33.2989         1.77027     72.5757E-03
             193               1         37.3184         37.1325     172.691E-03    -366.744E-03
             194               1         41.0580        -40.6304         3.33849     36.6446E-03
             195               1         29.2411         28.9468         1.65426    -304.782E-03
             196               1         37.6080         37.4535         1.42313    -146.976E-03
             197               1         42.1894        -42.3531    -91.2766E-03    -329.930E-03
             198               1         37.6818         37.5269     914.321E-03    -241.874E-03
             199               1         37.4620         37.3115     19.6576E-03    -299.060E-03
             200               1         23.5226         5.97086         12.6406        -3.88611
             201               1         33.3894        -33.2193         2.11119    -61.6633E-03
             202               1         29.4091        -29.1550    -454.450E-03     481.273E-03
             203               1         103.728        -85.9132         41.2643        -53.7049
             204               1         107.404        -53.6414     484.940E-03        -123.655
             205               1         35.6492         35.4598         1.25529    -244.812E-03
             206               1         43.8329         43.7563     985.731E-03    -86.4677E-03
             207               1         45.9067         45.8947     675.619E-03     5.80402E-03
             208               1         39.8955         39.7854     580.856E-03    -194.133E-03
             209               1         29.3557         29.5768     890.877E-03     530.512E-03
             210               1         48.9147         48.9247     395.522E-03     29.4978E-03
             211               1         42.3186         42.2274     421.126E-03    -169.270E-03
             212               1         43.1771         43.1262    -776.126E-03    -59.7702E-03
             213               1         50.4902         50.6021    -32.8378E-03     224.554E-03
             214               1         43.8816         43.8024     4.81705E-03    -157.919E-03
             215               1         44.3235        -44.9137    -789.089E-03        -1.24891
             216               1         46.4362        -46.3207        -1.59427     66.5785E-03
             217               1         50.1885         50.2344     145.428E-03     93.1249E-03
             218               1         43.6481         43.5649     94.4130E-03    -165.144E-03
             219               1         1.28241    -126.938E-03     345.006E-03        -1.19281
             220               1         43.4348         43.3638    -712.288E-06    -141.639E-03
             221               1         50.4742         50.5518     17.5421E-03     155.470E-03
             222               1         44.0333         43.9556     19.0147E-03    -154.828E-03
             223               1         49.3194         49.4230     35.7124E-03     207.917E-03
             224               1         43.4077         43.3382     86.5493E-03    -138.303E-03
             225               1         41.4752        -41.4173     280.636E-03     109.865E-03
             226               1         46.3375        -46.3962     275.669E-03    -122.593E-03
             227               1         50.4990         50.5803    -12.2515E-03     162.991E-03
             228               1         44.0658         43.9918     5.04704E-03    -147.584E-03
             229               1         43.4784         43.4066    -93.5810E-03    -142.590E-03
             230               1         43.5805         43.5094    -116.219E-03    -140.859E-03
             231               1         43.9618         43.8861    -107.225E-03    -150.260E-03
             232               1         50.2429         50.2864    -147.287E-03     88.2585E-03
             233               1         48.0652        -48.0964     118.061E-03    -63.4543E-03
             234               1         43.3794         43.3092    -12.9590E-03    -140.216E-03
             235               1         49.4512         49.5052    -35.3135E-03     108.295E-03
             236               1         48.3083        -48.3507     371.091E-06    -84.9032E-03
             237               1         33.4113        -23.6340         2.03695        -37.9884
             238               1         29.5862        -29.2481    -818.117E-03     599.218E-03
             239               1         43.3397         43.2682    -56.1476E-03    -142.375E-03
             240               1         25.2038         24.9057        -1.76021    -224.423E-03
             241               1         62.1643        -58.8970         20.5068        -30.5317
             242               1         49.4989         49.5581     53.1178E-03     118.638E-03
             243               1         102.677        -86.9027         39.8207        -54.4686
             244               1         43.6572         43.5729    -83.2517E-03    -167.542E-03
             245               1         42.1584        -42.0975     10.6612E-03     121.472E-03
             246               1         49.3199         49.4279    -43.7985E-03     216.765E-03
             247               1         49.2987         49.4225     4.68545E-03     248.377E-03
             248               1         43.3743         43.3041     67.2878E-03    -139.709E-03
             249               1         42.3815        -42.3183    -25.9428E-03     126.043E-03
             250               1         48.0597        -48.1581    -29.3769E-03    -197.504E-03
             251               1         42.2564        -42.1950    -74.2628E-03     122.212E-03
             252               1         30.6786         9.00019         4.01908        -24.3437
             253               1         47.1996         21.0273        -1.08878        -32.9908
             254               1         35.8315        -35.6561     139.989E-03     346.560E-03
             255               1         42.0865        -42.0635    -162.959E-03     44.2054E-03
             256               1         37.2021         37.0611     1.47465E-03    -280.286E-03
             257               1         41.4290         41.3272    -536.610E-03    -182.014E-03
             258               1         41.7052        -41.6893    -189.960E-03     29.1916E-03
             259               1         42.0852        -42.2722    -99.7548E-03    -377.365E-03
             260               1         22.2359         9.70371        -11.1968        -2.05523
             261               1         49.9476         50.0261     138.944E-03     158.632E-03
             262               1         43.9091         43.8316     142.147E-03    -153.253E-03
             263               1         41.2388        -41.1918    -341.846E-03     85.3057E-03
             264               1         46.2306        -46.2681    -331.948E-03    -82.3005E-03
             265               1         47.0012        -47.0088    -267.897E-03    -19.7109E-03
             266               1         41.6899        -41.6297    -215.887E-03     116.915E-03
             267               1         50.6706         50.7073    -22.7952E-03     73.4307E-03
             268               1         44.0267         43.9472    -80.9354E-03    -158.082E-03
             269               1         36.0677        -36.3010     342.193E-03    -481.204E-03
             270               1         42.3720         42.1733         1.06505    -315.296E-03
             271               1         16.6974         3.35692         8.88589        -4.10736
             272               1         25.9130         3.83144        -3.54261        -23.0407
             273               1         28.9747         28.6746        -2.10313    -139.830E-03
             274               1         7.16990        -3.43693         3.66427        -3.22427
             275               1         1.36027     112.931E-03    -780.289E-03    -62.7653E-03
             276               1         36.0804        -35.9710    -133.755E-03     216.446E-03
             277               1         22.9512         6.36039        -12.5195        -1.93888
             278               1         51.4731        -48.6274         9.69948     53.9140E-03
             279               1         102.492        -86.0958        -40.3951        -50.1225
             280               1         106.829        -53.3260        -1.99967        -122.931
             281               1         42.4123         42.3175    -340.333E-03    -180.971E-03
             282               1         48.8869         48.8945    -414.391E-03     25.7935E-03
             283               1         36.8395        -38.4531        -3.24929        -4.51287
             284               1         40.3908         40.2857    -654.378E-03    -177.751E-03
             285               1         45.9332         45.9331    -790.497E-03     40.6154E-03
             286               1         40.9353        -40.4724        -3.23799     153.338E-03
             287               1         25.6168         22.9285         6.17492    -682.590E-03
             288               1         17.5242         15.3837        -3.74954        -1.65845
             289               1         21.8005         5.21749        -10.8530        -7.46531
             290               1         35.6076         35.4601        -1.00297    -209.163E-03
             291               1         40.9199         40.9122        -1.16439     84.0871E-03
             292               1         13.4799        -2.53047         6.49948        -8.34880
             293               1         32.4861         32.0309         2.45751    -347.476E-03
             294               1         88.6999        -35.9958        -42.9284        -54.9754
             295               1         29.6964         28.0166        -5.18782    -567.091E-03
             296               1         4.64066        -1.17171         2.30012         1.56691
             297               1         36.7851         36.5524    -181.071E-03    -458.583E-03
             298               1         25.2823        -24.7398        -2.27171     462.441E-03
             299               1         26.7797        -26.6043        -1.99849    -98.8725E-03
             300               1         14.1641         13.3734        -2.79598     126.750E-03
             301               1         22.1223         4.40527         11.6924        -5.84150
             302               1         4.80352        -1.79822        -2.60435    -350.808E-03
             303               1         9.97700        -8.14536        -3.57138    -679.157E-03
             304               1         118.102        -8.39694     200.793E-03        -122.076
             305               1         43.6554         43.5787    -435.594E-03    -140.105E-03
             306               1         27.4097        -29.7113         4.65290        -9.92896
             307               1         22.4827        -18.1142         7.47067     531.622E-03
             308               1         35.8627        -35.6805    -204.075E-03     358.233E-03
             309               1         35.6787         34.7792        -3.59889    -691.354E-03
             310               1         13.6220        -4.71819        -7.43395    -606.214E-03
             311               1         43.8540         43.9353     234.497E-03     166.995E-03
             312               1         34.2855         32.8194         3.72152        -1.64881
             313               1         48.5509        -18.4707         20.2184        -38.8151
             314               1         34.1881         33.9202        -1.66341    -290.715E-03
             315               1         35.0560        -32.9869        -8.41746        -2.34216
             316               1         37.5011        -14.4729        -15.9284        -29.3291
             317               1         35.6214        -35.6693    -178.827E-03    -98.7939E-03
             318               1         1.78904     48.8789E-03         1.02342    -213.647E-03
             319               1         32.0801        -23.3572        -13.2392        -21.3808
             320               1         41.0680        -37.0191        -12.8275        -5.65906
             321               1         28.9544        -27.0487         6.89378        -1.39744
             322               1         10.6739         3.82413         4.68992        -4.16898
             323               1         23.9064         17.1664         8.97133        -1.85951
             324               1         29.7380         27.7905        -3.36586        -2.57064
             325               1         27.2294        -24.3006        -7.23749    -258.727E-03
             326               1         36.1682        -36.0435    -35.5878E-03     247.860E-03
             327               1         41.4227        -41.5368     384.809E-03    -239.889E-03
             328               1         34.9629         34.5542        -2.09664    -435.071E-03
             329               1         25.7857         23.0094        -6.27542    -729.816E-03
             330               1         37.1091        -37.2790    -941.933E-03    -414.983E-03
             331               1         42.3499        -40.4865         11.9068        -8.46056
             332               1         41.2361        -41.4232     326.718E-03    -384.695E-03
             333               1         53.9063         3.20456         8.22060        -50.3155
             334               1         36.8184         36.6017     552.776E-03    -405.224E-03
             335               1         42.8261        -44.1804        -2.64465        -3.40443
             336               1         35.8013        -35.7803    -130.239E-06     41.9169E-03
             337               1         28.9677        -27.0516        -6.84720        -1.29320
             338               1         42.2759        -42.2945     267.362E-03    -42.3106E-03
             339               1         36.6682         36.8555     243.134E-03     382.459E-03
             340               1         15.8261        -16.9404         1.37213        -13.9094
             341               1         44.9862         1.93887        -6.28950        -42.6455
             342               1         24.4798        -8.53299         13.4245        -2.26792
             343               1         33.7769         12.2448         7.44119        -23.2428
             344               1         24.7970        -26.6628        -1.78240        -21.8274
             345               1         42.3027        -42.3289    -23.4010E-03    -52.5032E-03
             346               1         36.9166         36.6832     248.055E-03    -457.386E-03
             347               1         26.4965         22.0957         6.62599        -3.24159
             348               1         35.9497        -35.8108    -577.208E-03     248.853E-03
             349               1         28.9810         25.1470         6.85045        -2.42086
             350               1         37.0544         36.8382    -203.606E-03    -425.343E-03
             351               1         52.2172        -37.4276        -13.2064        -52.6666
             352               1         17.9187        -1.40632         9.92793        -5.59230
             353               1         33.2083        -31.2912        -8.00054        -2.36355
             354               1         37.2143         37.1032     171.405E-03    -218.793E-03
             355               1         24.0774         22.5931        -4.82995     31.5782E-03
             356               1         43.6262         43.6112     476.461E-03    -14.4319E-03
             357               1         10.0845         7.74629        -4.03721         1.08096
             358               1         37.2167         37.0236     79.5423E-03    -382.763E-03
             359               1         43.1754         43.0708     820.770E-03    -162.022E-03
             360               1         38.7153        -40.9867        -7.24385        -11.4645
             361               1         41.2267        -41.4643     40.8885E-03    -479.382E-03
             362               1         43.9524         44.0677     186.232E-03     233.831E-03
             363               1         36.8743         36.8898    -182.409E-03     33.7889E-03
             364               1         6.77219         6.49875     61.2286E-03    -515.728E-03
             365               1         29.6319         28.9881        -1.75792    -950.946E-03
             366               1         35.9811         35.7782         1.07527    -307.307E-03
             367               1         34.6858        -32.5193         8.64015        -2.62079
             368               1         35.4842        -35.3181     90.6479E-03     329.249E-03
             369               1         43.4923         43.7183    -211.500E-03     458.747E-03
             370               1         19.6241         16.9243        -5.80584     145.995E-03
             371               1         20.4327        -20.7684         1.01018    -848.023E-03
             372               1         51.4145        -14.2219        -24.5824        -33.1662
             373               1         28.3431        -28.3339    -569.967E-03    -15.9638E-03
             374               1         18.3532        -1.86408        -10.0980        -6.25435
             375               1         27.4357         24.6126         4.87638        -2.76170
             376               1         6.81278        -3.25953        -3.49420        -2.97778
             377               1         35.7782        -36.2534     108.507E-03    -971.207E-03
             378               1         43.2459         43.4915    -2.12434E-03     495.441E-03
             379               1         36.0521        -35.8804    -40.9084E-03     340.924E-03
             380               1         22.1343         17.9098         4.69909        -4.57697
             381               1         9.92861         7.67766         3.85627     715.522E-03
             382               1         36.3121         36.0527        -1.03360    -426.726E-03
             383               1         35.3406         35.0314        -1.47250    -430.156E-03
             384               1         46.5578        -48.5458        -7.11226        -8.51354
             385               1         36.6015        -36.5388        -7.59383        -5.41015
             386               1         37.0451         36.8420    -13.8280E-03    -402.900E-03
             387               1         36.8559         36.7157    -240.620E-03    -274.062E-03
             388               1         43.8438         43.9872     283.145E-03     293.804E-03
             389               1         30.3561         29.9599     668.314E-03    -734.928E-03
             390               1         27.3801        -28.5242        -2.86596        -3.54719
             391               1         44.0975         44.0749     34.4534E-03    -45.0860E-03
             392               1         15.7498        -9.18647        -7.67064        -1.72137
             393               1         21.7598         19.4380        -3.53503        -2.63501
             394               1         14.0269        -1.45225        -7.40214        -6.27557
             395               1         8.34157         7.55812        -1.44906    -741.853E-03
             396               1         20.1577         20.0017        -1.25860    -75.4825E-03
             397               1         23.1783         19.2966        -3.50507        -5.22141
             398               1         9.46962         2.04131        -5.18019        -1.43808
             399               1         35.9449        -35.8235     371.190E-03     230.283E-03
             400               1         36.0867        -36.0223    -116.664E-03     127.326E-03
             401               1         26.7692         21.1210        -7.57937        -3.91958
             402               1         22.2023        -10.9571        -11.2071    -369.950E-03
             403               1         27.1496         26.4129         2.75943    -614.741E-03
             404               1         19.5698         16.6854         5.92481     44.1823E-03
             405               1         41.6004         41.5061         1.48261    -29.9260E-03
             406               1         35.3957         34.9446         1.92939    -578.753E-03
             407               1         38.1866        -38.5524        -3.35920        -1.67937
             408               1         21.6693         20.2062        -2.15332        -2.12098
             409               1         43.4520         43.7132     197.256E-03     529.926E-03
             410               1         43.9359         43.9434    -226.703E-03     18.4917E-03
             411               1         43.4024         43.5863    -103.492E-03     371.018E-03
             412               1         37.1495         37.0310    -179.911E-03    -233.198E-03
             413               1         30.5588         30.1835     908.480E-03    -658.720E-03
             414               1         36.7166         36.5216     175.645E-03    -384.430E-03
             415               1         43.3455         43.3879    -34.3950E-03     84.9794E-03
             416               1         36.6711         36.5054    -154.991E-03    -327.407E-03
             417               1         28.2616        -28.7434         1.52814        -1.25384
             418               1         42.3217        -42.3906     112.398E-03    -138.868E-03
             419               1         36.1851        -36.0120     45.9091E-03     343.587E-03
             420               1         37.0145         36.9168     66.8934E-03    -194.267E-03
             421               1         16.8983         6.94914        -8.72890        -1.08098
             422               1         28.5877        -28.3033     16.2125E-03     560.579E-03
             423               1         39.8872         39.3945         2.15637    -627.375E-03
             424               1         20.9005         4.89547         10.4070        -7.24454
             425               1         26.1366        -26.6818         1.61090        -25.2320
             426               1         31.2293         28.9356        -5.40673        -1.64493
             427               1         48.0677        -12.7710         23.6096        -29.0999
             428               1         28.3845        -28.0529    -262.382E-03     644.738E-03
             429               1         18.9031        -14.6027         7.21183    -869.749E-03
             430               1         18.0430        -11.6852         7.82831     426.060E-03
             431               1         19.7036         11.7115         8.70898        -1.74845
             432               1         16.9739         11.4467         7.25552     74.0789E-03
             433               1         36.9883         36.9559    -34.3054E-03    -64.4865E-03
             434               1         15.7738        -9.24294         7.64311        -1.54157
             435               1         13.8927        -5.06693         7.51612    -465.460E-03
             436               1         50.2831        -39.5264        -7.44528        -54.2646
             437               1         35.8977        -35.7905     244.412E-03     208.525E-03
             438               1         35.9037        -35.7288     218.560E-03     343.265E-03
             439               1         32.4848         31.4703         4.17552    -394.679E-03
             440               1         29.4643         28.8118         3.53624    -17.6555E-03
             441               1         41.6484        -41.6506     343.229E-03    -13.0427E-03
             442               1         35.5687        -35.3836     420.416E-03     352.769E-03
             443               1         35.3585        -35.5110     431.587E-03    -323.003E-03
             444               1         26.9484        -27.9636         2.53450        -3.00572
             445               1         29.6861        -29.3436    -630.549E-03     634.653E-03
             446               1         35.7460        -35.8182     15.0291E-03    -144.821E-03
             447               1         37.0908         36.9167     287.565E-03    -339.225E-03
             448               1         65.6581        -56.8629         24.9619        -32.5124
             449               1         39.3271        -35.2109         12.7718        -6.31779
             450               1         50.7365        -36.8177         10.6460        -53.3020
             451               1         37.3375         37.1913    -173.895E-03    -288.311E-03
             452               1         43.0851        -44.1727         2.68913        -2.81953
             453               1         30.2083         29.8334        -1.26127    -583.201E-03
             454               1         20.3581    -159.125E-03        -11.6796        -2.35903
             455               1         41.6488        -41.7169    -406.967E-03    -148.606E-03
             456               1         35.8800        -35.7223    -437.901E-03     297.429E-03
             457               1         43.2852         43.5157     74.6576E-03     465.078E-03
             458               1         36.7750         36.6162     200.981E-03    -312.321E-03
             459               1         22.4030         17.9855        -7.24473        -1.09817
             460               1         16.8728         11.4336        -7.20223     146.295E-03
             461               1         36.9079         37.4564    -180.543E-03         1.12529
             462               1         41.1591        -41.3825    -395.858E-03    -462.008E-03
             463               1         37.0488         36.8132     243.721E-03    -462.135E-03
             464               1         43.9567         44.1122    -85.0810E-03     313.244E-03
             465               1         37.3354         37.1558     301.315E-03    -349.455E-03
             466               1         30.1149         29.7791    -40.2412E-03    -660.546E-03
             467               1         41.4443        -41.4718    -454.465E-03    -70.1306E-03
             468               1         35.6607        -35.4753    -474.461E-03     349.383E-03
             469               1         21.6162         21.4500         1.42888    -47.9770E-03
             470               1         35.9233        -36.3548    -115.199E-03    -880.206E-03
             471               1         29.7339        -23.1058        -11.9646        -4.18795
             472               1         41.0712        -41.4306    -32.6899E-03    -728.610E-03
             473               1         36.0702        -36.0249    -204.933E-03     86.9740E-03
             474               1         43.6300         43.8466     259.712E-03     441.159E-03
             475               1         42.4304         42.3096        -1.19471    -140.159E-03
             476               1         19.3596        -19.5929     718.828E-03    -558.981E-03
             477               1         37.1127        -37.5205         7.91715        -7.20739
             478               1         47.0221        -49.1284         7.47566        -9.29275
             479               1         43.8164         43.9597    -211.384E-03     291.106E-03
             480               1         36.4963        -36.5280         1.21226    -185.027E-03
             481               1         41.5416        -42.0810     818.483E-03        -1.15103
             482               1         35.9012        -35.8696     347.984E-03     53.1187E-03
             483               1         32.9662        -23.3583        -2.92648        -37.2108
             484               1         46.4118        -35.6743         4.39942        -51.6232
             485               1         40.4266         40.0570        -2.22268    -369.237E-03
             486               1         36.7864         36.8772    -14.2496E-03     182.204E-03
             487               1         30.5272         30.2452    -915.188E-03    -476.069E-03
             488               1         30.4864         30.1731    -163.776E-03    -614.737E-03
             489               1         38.1114         37.4611        -2.93827    -610.507E-03
             490               1         31.2197         30.7838        -2.39791    -314.391E-03
             491               1         37.0211         37.3430    -76.8476E-03     652.746E-03
             492               1         53.6787         4.93439        -7.94557        -49.2411
             493               1         52.1648         1.24347         7.40164        -49.9318
             494               1         50.1626         21.9204    -559.350E-03        -35.4615
             495               1         29.3383        -29.0220     746.677E-03     567.388E-03
             496               1         21.0638        -12.7746        -9.97817        -1.63330
             497               1         19.5850         19.6259    -833.140E-03     189.476E-03
             498               1         22.2674        -17.9256        -7.43087     481.265E-03
             499               1         16.7953         6.90188         8.65760        -1.18508
             500               1         30.8463         30.6887     8.80617E-03    -312.881E-03
             501               1         24.6880        -9.25656        -13.2988        -8.45644
             502               1         23.2723        -20.6035        -6.69763    -886.567E-03
             503               1         29.1521         27.5955        -2.85970        -2.14523
             504               1         22.2942         4.45378        -11.6243        -6.53567
             505               1         8.69016        -7.87031        -1.60013     688.842E-03
             506               1         19.9237        -20.3802         3.33247        -17.4097
             507               1         35.7916        -36.1291    -193.605E-03    -688.091E-03
             508               1         22.1519         20.7211        -3.52567        -1.10209
             509               1         9.61664         1.83906         5.32906        -1.25912
             510               1         19.5007        -5.75698         10.8222    -863.767E-03
             511               1         37.2094         37.4972    -292.933E-03     589.431E-03
             512               1         30.5025         30.0931    -885.984E-03    -728.471E-03
             513               1         37.3173         10.7725        -7.37969        -28.4097
             514               1         18.6060         7.96501        -9.67511    -234.232E-03
             515               1         42.3350        -41.3790        -11.8183        -30.1268
             516               1         22.0820         9.41259         11.2754        -1.59959
             517               1         19.2171         2.94851        -10.9242    -707.448E-03
             518               1         20.0260        -19.8225     752.984E-03     318.116E-03
             519               1         7.33208        -6.70556         1.94584    -407.080E-03
             520               1         27.8523        -28.1919        -1.41346    -917.655E-03
             521               1         30.0622         29.9542    -111.471E-03    -213.603E-03
             522               1         24.3570        -12.8291        -11.5897        -14.5914
             523               1         28.9002         7.85084        -4.16292        -23.2224
             524               1         26.3872        -13.5876         13.6096        -5.32717
             525               1         29.5080        -29.0415    -555.066E-03     881.865E-03
             526               1         29.1726         28.9233    -264.737E-03    -485.332E-03
             527               1         30.3648        -25.7800        -11.7864        -10.2810
             528               1         22.0799        -12.9501         10.9640        -5.42056
             529               1         29.8248        -29.9036     915.738E-03    -243.339E-03
             530               1         29.2625        -29.0569    -443.493E-03     387.204E-03
             531               1         35.1058         34.6027         1.30991    -844.146E-03
             532               1         35.7447        -36.1641     491.702E-03    -875.079E-03
             533               1         20.8909        -21.0962        -1.07626    -589.806E-03
             534               1         30.2599        -30.1660    -106.361E-03     185.843E-03
             535               1         29.9092        -23.2643         12.1592        -4.91645
             536               1         35.5931         34.8266        -2.20997        -1.09476
             537               1         36.9358         36.6472     685.388E-03    -533.283E-03
             538               1         29.0554         28.5069    -812.004E-03        -1.00295
             539               1         36.3394         36.0698        -1.58745    -328.628E-03
             540               1         25.0983        -27.1636         3.73369        -7.69060
             541               1         28.8985        -28.2852         3.20202        -28.4369
             542               1         18.3398         1.79465         8.94363        -8.79635
             543               1         30.2670         30.0716    -517.731E-03    -361.035E-03
             544               1         36.5703         36.7007     11.2529E-03     262.276E-03
             545               1         33.7226        -2.65822         8.15194        -31.8669
             546               1         36.1424         35.4626         1.69070        -1.09700
             547               1         21.4995         14.8951        -8.64863        -1.00442
             548               1         23.6268        -26.1372        -3.82941        -11.7024
             549               1         37.3841        -39.5567         6.05524        -9.10010
             550               1         36.9654         36.9576    -346.655E-03    -5.91793E-03
             551               1         20.7714         20.5479     881.909E-03    -330.486E-03
             552               1         30.1823         29.0642     447.998E-03        -2.10585
             553               1         35.6378        -36.0803    -270.083E-03    -908.368E-03
             554               1         29.1608         28.8658    -18.0030E-03    -581.244E-03
             555               1         29.6928        -29.4441     608.186E-03     454.746E-03
             556               1         29.0244        -28.8334    -193.219E-03     374.612E-03
             557               1         29.3159         28.3258        -3.39029    -776.322E-03
             558               1         27.2922        -28.8915         5.52599        -19.6623
             559               1         19.9885        -20.0115    -303.743E-03    -60.0340E-03
             560               1         36.6235         36.6353    -180.589E-03     26.3190E-03
             561               1         29.5202        -29.2737     376.022E-03     473.049E-03
             562               1         30.7791         6.87913         8.21316        -23.1967
             563               1         36.1824        -37.7051         2.94490        -4.12523
             564               1         29.0898         29.1096    -272.492E-03     47.4142E-03
             565               1         13.8508        -4.72624        -7.53712        -4.52343
             566               1         24.4032         15.8838         9.60471        -3.43994
             567               1         13.8080        -4.77587         7.53232        -4.21698
             568               1         21.9953        -13.0059        -10.8884        -5.38125
             569               1         35.6443        -35.5180    -246.416E-03     246.299E-03
             570               1         30.7483        -21.3119         12.8166        -21.2398
             571               1         30.1265        -19.5187         14.3631        -11.4855
             572               1         13.9387    -992.400E-03         6.75169        -8.03238
             573               1         22.4762         22.1464    -150.672E-03    -642.874E-03
             574               1         28.1842        -29.7772         2.12298        -4.12667
             575               1         19.3372         5.59670         10.4756        -1.80807
             576               1         7.29602        -7.54390     200.485E-03    -542.623E-03
             577               1         21.9846    -1.79633E-03        -12.6419        -1.96879
             578               1         27.7748        -25.5563         7.85743        -22.5954
             579               1         45.8871        -36.4009         17.6014        -31.7071
             580               1         29.1753         28.9595     103.997E-03    -425.947E-03
             581               1         22.4525         19.7845         6.04346    -156.370E-03
             582               1         26.2629         23.1961         6.57241    -916.175E-03
             583               1         30.4357         29.2582         4.12133    -646.673E-03
             584               1         25.3231         23.2508         5.12464    -905.502E-03
             585               1         7.94924        -7.75425    -681.779E-03     209.410E-03
             586               1         19.6540        -5.44493        -10.9462    -580.943E-03
             587               1         18.8443        -7.61094        -10.1205        -1.70995
             588               1         36.0098        -36.4396     65.8968E-03    -875.839E-03
             589               1         36.8179         36.6648         1.19232    -189.463E-03
             590               1         37.3368         37.6139    -212.859E-03     564.156E-03
             591               1         13.5346    -772.917E-03        -6.16499        -8.67605
             592               1         18.8802         7.78682         9.87605    -393.483E-03
             593               1         30.3685         30.1048     842.433E-03    -452.168E-03
             594               1         36.4463         36.1137    -970.314E-03    -580.571E-03
             595               1         32.0729         7.05459        -7.97566        -24.7661
             596               1         2.67267     510.868E-03    -579.717E-03        -2.18161
             597               1         17.6708        -2.98484         10.0461        -3.16628
             598               1         21.2402        -1.65399        -12.0384        -4.61142
             599               1         29.8749         29.0472        -1.99796        -1.21580
             600               1         26.6374        -13.7709        -13.7106        -5.04643
             601               1         17.1806     350.437E-03        -9.82856        -2.12260
             602               1         19.4859        -19.4246     401.845E-03     97.2325E-03
             603               1         23.4072         2.51725         13.3605        -1.50394
             604               1         18.6751        -1.34537         10.2067        -6.57819
             605               1         32.6846         1.88587        -15.7896        -16.8808
             606               1         27.5956        -23.7253         10.6307        -11.3011
             607               1         22.0147         4.09997         11.7767        -5.43107
             608               1         17.1662        -18.5249        -1.01343        -3.41270
             609               1         28.5963        -28.2847     12.6652E-03     613.257E-03
             610               1         28.3034        -28.0687    -7.61237E-03     463.754E-03
             611               1         29.1307         28.8114        -1.30713    -457.001E-03
             612               1         35.4940        -35.5272     206.160E-03    -70.0260E-03
             613               1         24.0387        -17.8901         9.96236        -2.61497
             614               1         25.4103        -16.8308         11.3329        -1.49278
             615               1         36.0394        -35.9031     213.638E-03     267.417E-03
             616               1         29.5952        -29.2880     342.102E-03     593.701E-03
             617               1         19.7604         19.4989        -1.55600    -152.665E-03
             618               1         20.8553        -21.6464         1.86413        -2.27376
             619               1         30.4445         30.0496     147.440E-03    -772.907E-03
             620               1         36.9985         36.9029     54.0621E-03    -190.200E-03
             621               1         29.1994         28.7974    -72.4194E-03    -787.451E-03
             622               1         19.9107         5.07689        -10.9696        -1.47508
             623               1         28.5653        -28.8130    -926.815E-03    -594.961E-03
             624               1         20.1451         14.4522         8.07780    -82.9152E-03
             625               1         22.7664         13.6337         10.1079        -1.69142
             626               1         37.1986         37.4216     287.663E-03     456.943E-03
             627               1         30.5692         30.1418     844.754E-03    -770.087E-03
             628               1         36.5727        -30.3855         14.5981        -12.7878
             629               1         20.4691        -14.1870         9.02003        -11.9870
             630               1         35.9546        -30.2053        -14.0432        -11.0005
             631               1         37.1669         37.5469     210.584E-03     775.869E-03
             632               1         30.1044         29.6140         1.02981    -856.733E-03
             633               1         28.0629        -23.0698        -10.6887        -4.78063
             634               1         20.7922        -12.4756         9.89104        -1.53788
             635               1         22.3481        -11.0561         11.2365    -144.641E-03
             636               1         28.1128        -28.1236         1.55454    -282.136E-03
             637               1         30.3120        -30.1728     390.889E-03     261.473E-03
             638               1         30.2531         30.0079     781.228E-03    -425.377E-03
             639               1         36.6957         36.7875     72.3453E-03     184.611E-03
             640               1         29.2902         29.1002     20.6585E-03    -376.403E-03
             641               1         19.0869        -7.56733         10.2855        -1.78652
             642               1         27.4493        -22.3420         10.7202        -5.31265
             643               1         28.0642        -27.9500     913.576E-03     138.668E-03
             644               1         19.4301        -19.6432    -209.855E-03    -440.523E-03
             645               1         8.29420         8.78404     524.497E-03         1.21414
             646               1         35.9036        -35.7184     555.311E-03     342.246E-03
             647               1         29.3768        -29.1618     610.260E-03     388.046E-03
             648               1         35.7398        -36.0627    -266.790E-03    -660.886E-03
             649               1         29.4506        -28.9833        -1.19217     774.245E-03
             650               1         16.9023        -7.48518        -8.57630        -8.53941
             651               1         15.9306        -14.7677        -4.19285        -13.5059
             652               1         20.5232     116.462E-03         11.7324        -2.81368
             653               1         37.0403         37.0330     340.083E-03    -5.28245E-03
             654               1         36.7517         36.5737    -651.035E-03    -319.279E-03
             655               1         23.2434        -3.91495         13.2544    -644.803E-03
             656               1         35.0872         34.4325        -2.16715    -889.625E-03
             657               1         28.0264        -29.4562    -733.346E-03        -3.19054
             658               1         30.4151         30.2295    -506.247E-03    -342.979E-03
             659               1         37.0265         37.5736     340.882E-03         1.12956
             660               1         32.8344         31.4374        -4.37802    -995.600E-03
             661               1         28.7827         27.8936        -2.65556        -1.01146
             662               1         45.6594        -37.1860        -18.0239        -27.1428
             663               1         29.6812        -26.0527        -9.66543        -22.6002
             664               1         33.6840        -26.6974        -7.23529        -34.3963
             665               1         16.3500         6.78285         3.76539        -10.4029
             666               1         12.7306        -2.32241         3.41812        -12.2505
             667               1         21.2097         20.6466         1.12752    -916.078E-03
             668               1         29.2794        -28.9829    -562.685E-03     552.746E-03
             669               1         19.2537        -19.5827        -1.85947        -1.26359
             670               1         22.3768         5.87109        -11.1079        -7.29733
             671               1         25.3103        -16.7096        -11.2946        -1.39076
             672               1         24.4690        -18.3023        -10.0707        -2.57514
             673               1         22.6874         3.75333        -11.7957        -7.43646
             674               1         27.6452        -29.0304        -1.91054        -3.50464
             675               1         16.6458         2.65960        -8.34356        -6.60310
             676               1         21.7331         5.12816         10.9157        -7.19039
             677               1         6.48790         6.19556        -1.58919     704.560E-03
             678               1         21.7209         21.5559        -1.12254    -154.877E-03
             679               1         20.9723         19.3451         3.58815        -1.30646
             680               1         19.9433        -21.3083     647.404E-03        -3.17455
             681               1         17.0611     203.477E-03         9.76603        -2.11694
             682               1         29.8009         29.4309         1.31863    -556.903E-03
             683               1         29.1537         28.1631    -845.695E-03        -1.82215
             684               1         22.0393         20.3556         2.64598        -2.23034
             685               1         21.2692        -20.3533        -5.65789        -16.9333
             686               1         28.0983        -28.4777     358.047E-03    -789.158E-03
             687               1         16.0529        -17.5861         1.35485        -4.29461
             688               1         29.8404         29.7750    -655.838E-03    -87.2684E-03
             689               1         28.7791         28.8554     827.236E-03     225.215E-03
             690               1         23.3139         6.17843        -12.3538        -4.46450
             691               1         26.4138         5.34190        -12.7024        -11.1939
             692               1         29.0082         27.6997         2.92796        -1.65180
             693               1         19.8879         15.5941         6.64231        -1.19101
             694               1         21.4583         3.45138        -11.8975        -3.45777
             695               1         21.4441         3.43857         11.3337        -6.38143
             696               1         14.2357     572.669E-03        -2.15887        -13.4406
             697               1         23.2256         4.31187        -12.9639        -2.45841
             698               1         8.82499        -8.30296         1.00713     658.218E-03
             699               1         19.8417        -4.44616        -11.2329        -1.64734
             700               1         24.0334        -26.6902        -3.80039        -13.3308
             701               1         23.2130        -4.27628        -13.2202        -1.24011
             702               1         22.6879         19.9408        -5.56215        -1.15176
             703               1         26.9765         23.2046        -7.09332        -1.54849
             704               1         23.6437         17.1854        -8.95810        -1.24498
             705               1         19.5431         14.0971        -7.74659    -221.872E-03
             706               1         24.4458        -8.48250        -13.4202        -2.41723
             707               1         22.5446         2.13024        -1.28110        -21.2941
             708               1         22.6377        -17.1008        -9.83893        -10.2011
             709               1         20.2382        -20.7691     946.587E-03        -1.25341
             710               1         18.6041        -4.96217         8.20055        -13.7016
             711               1         14.4201        -16.6436    -229.098E-03        -8.48061
             712               1         19.9528        -22.7322     155.491E-03        -14.6031
             713               1         26.1460         23.2281        -5.93087        -1.55513
             714               1         22.8631        -18.2685        -4.70158        -23.4906
             715               1         28.8716        -28.9893     712.595E-03    -290.340E-03
             716               1         21.0727        -20.7582     967.701E-03     487.043E-03
             717               1         21.2921        -9.21606        -11.3595        -3.01469
             718               1         8.34400         8.19421        -1.47672     530.402E-03
             719               1         25.2759         9.91845        -7.71096        -14.7058
             720               1         20.7451     882.886E-03        -11.6604        -4.23593
             721               1         7.71171        -8.03973         1.27909        -1.55326
             722               1         8.19601        -8.15690    -972.826E-03    -279.217E-03
             723               1         29.2694         29.1428     51.8616E-03    -251.270E-03
             724               1         18.0797        -3.92841        -10.2060        -3.64026
             725               1         20.7960    -941.363E-03         11.9194        -2.83527
             726               1         29.1225         29.0753    -148.619E-03    -91.7849E-03
             727               1         29.4856         29.7411    -373.554E-03     532.443E-03
             728               1         16.8636        -18.6605        -1.92869        -5.85735
             729               1         29.1838         29.1178         1.26313     32.1970E-03
             730               1         30.9095         30.5553    -228.701E-03    -691.728E-03
             731               1         22.2917         22.2982    -972.429E-03     141.145E-03
             732               1         21.6733         21.9864    -917.741E-03     763.152E-03
             733               1         23.3520         9.44127         11.8102        -3.02668
             734               1         20.8957         20.2533         1.41115    -964.220E-03
             735               1         21.1271         15.6156         6.02608        -4.62314
             736               1         29.4069        -19.0623        -14.0253        -10.9839
             737               1         6.75859        -7.54555     996.096E-03        -3.75370
             738               1         20.1181        -19.8695        -1.13923     299.949E-03
             739               1         28.3025        -28.2356    -100.092E-03     132.309E-03
             740               1         7.71313    -367.592E-03         1.80597        -7.22699
             741               1         18.4349         10.3809         8.62388    -801.914E-03
             742               1         25.4259         1.88432        -1.41966        -24.3119
             743               1         27.5632        -30.0363        -3.61895        -8.39960
             744               1         6.51670        -2.75103    -586.731E-03        -7.35535
             745               1         11.4158         9.26670        -1.88846        -2.79756
             746               1         28.5161        -28.5588     660.460E-03    -131.934E-03
             747               1         23.6996         10.3044        -11.8597        -2.59884
             748               1         21.2797        -21.1119    -956.118E-03     205.145E-03
             749               1         28.7574        -28.8551    -553.467E-03    -228.579E-03
             750               1         21.9832        -21.7138         1.19437     339.826E-03
             751               1         28.2251        -28.2028         1.26515    -126.313E-03
             752               1         20.8713        -20.8611    -561.750E-03    -25.1616E-03
             753               1         29.5739         29.4364     317.438E-03    -263.029E-03
             754               1         20.1802         20.2489    -884.214E-03     256.113E-03
             755               1         15.4743        -7.93410        -6.93309        -10.8981
             756               1         19.0588         3.54368         10.7634    -731.883E-03
             757               1         19.5593        -4.00538         11.1130        -1.79967
             758               1         24.1000    -136.925E-03         13.8061        -3.06355
             759               1         17.8969        -4.65871         9.99553        -4.40026
             760               1         20.6772        -8.76680         11.0726        -2.93420
             761               1         28.5759         28.4979        -1.59133     110.764E-03
             762               1         21.2461         21.2168         1.21485     151.062E-03
             763               1         19.8436        -3.38885        -10.7451        -7.92214
             764               1         16.3428        -18.1891         1.78704        -6.03256
             765               1         10.6021         6.89362     731.797E-03        -5.22245
             766               1         19.2836        -18.7983         1.41255     642.897E-03
             767               1         29.1060         28.4283        -1.29895        -1.14723
             768               1         21.4309         20.4704        -2.07062        -1.26018
             769               1         8.62088         4.12191        -3.25425        -3.39858
             770               1         26.4077         5.13943         12.9357        -10.6801
             771               1         29.2255         27.2420         2.92490        -2.86751
             772               1         17.0214         6.90070        -3.78624        -11.0757
             773               1         20.4438        -20.1462         1.32454     332.914E-03
             774               1         13.7717        -15.6305         1.09880        -6.14059
             775               1         21.7851         13.8471        -8.36712        -4.06549
             776               1         20.2008         16.6051         5.74572        -1.80857
             777               1         28.6848        -28.7541    -743.271E-03    -197.454E-03
             778               1         28.5424        -28.6494     552.115E-03    -247.822E-03
             779               1         21.1279        -20.6740        -1.36293     629.120E-03
             780               1         9.52698         8.91175        -1.51524    -474.760E-03
             781               1         19.5840         19.6228     80.3183E-03     78.9254E-03
             782               1         9.30510         9.09243     537.104E-03    -323.615E-03
             783               1         21.3858         21.9249    -89.1106E-03         1.12374
             784               1         28.4138        -28.4230    -702.577E-03    -70.7619E-03
             785               1         8.38595        -2.31470         4.20479        -4.79946
             786               1         29.4068         29.6077     621.655E-03     446.369E-03
             787               1         21.5117         3.77391        -11.3658        -6.14592
             788               1         21.5045     451.982E-03        -12.3834        -1.27327
             789               1         29.8183         29.4666     740.070E-03    -637.994E-03
             790               1         28.7581         28.6151    -859.789E-03    -207.873E-03
             791               1         20.4638         20.0946         1.16751    -527.819E-03
             792               1         8.20301        -4.29485        -3.37113        -6.54759
             793               1         23.8224        -8.65695         12.6739        -9.75217
             794               1         5.60709        -6.02469         1.18403        -2.90753
             795               1         23.5120     440.731E-03        -13.4445        -3.00522
             796               1         29.4647         29.1838        -1.29517    -386.900E-03
             797               1         21.7801         21.1361        -1.41846    -977.063E-03
             798               1         8.64515        -8.15050    -766.479E-03     736.523E-03
             799               1         7.16733        -6.05677        -1.95991     483.519E-03
             800               1         19.2690        -19.7458     118.965E-03    -994.326E-03
             801               1         20.0140         20.0395    -791.684E-03     145.855E-03
             802               1         6.95249         6.45900     738.385E-03    -696.361E-03
             803               1         13.5513         8.21372         2.32445        -6.70186
             804               1         9.15335     296.081E-03    -34.8318E-03        -9.00151
             805               1         20.7084        -12.6327         10.0638        -8.62109
             806               1         22.0828     953.091E-03         11.7382        -8.10323
             807               1         23.2525         4.74842         12.4732        -5.17721
             808               1         13.5530         10.0343         3.98294        -2.76605
             809               1         18.3533    -886.953E-03        -9.89182        -6.97869
             810               1         9.69895         9.11793         1.79120    -141.265E-03
             811               1         23.3935         4.95637        -8.71767        -14.8665
             812               1         22.2622         5.12723        -8.63380        -13.3192
             813               1         19.4333         2.89186        -9.19337        -9.40895
             814               1         7.29933     729.302E-03     936.921E-03        -6.72392
             815               1         17.6703        -18.4455     775.947E-03        -1.78932
             816               1         5.84036        -6.44716    -878.627E-03        -4.01065
             817               1         21.8185         3.25574         12.2417        -2.67535
             818               1         21.7506         8.72618         2.81115        -15.4427
             819               1         16.3186        -18.3532        -2.09836        -9.85356
             820               1         19.2535        -16.1322         2.65813        -20.4884
             821               1         29.1809         29.4011    -668.631E-03     492.698E-03
             822               1         21.6944         21.4238         1.41769    -260.075E-03
             823               1         29.8401         29.6539    -374.125E-03    -355.159E-03
             824               1         22.5294         22.2183         1.35414    -372.657E-03
             825               1         20.0970         20.0111        -1.53935     184.695E-03
             826               1         10.3884         9.69448     825.867E-03        -1.10131
             827               1         11.8461         8.32621     739.967E-03        -5.14780
             828               1         28.5557         7.19266         8.05311        -20.5298
             829               1         23.4825         6.15459         8.73627        -14.0706
             830               1         19.2874         6.26638         7.86295        -9.39985
             831               1         21.7848         21.0460     388.970E-03        -1.39003
             832               1         6.78612         5.72431         1.96409    -284.693E-03
             833               1         8.55068         8.41114        -1.41166     453.860E-03
             834               1         18.4416         4.96011        -9.77467        -3.43678
             835               1         15.6408         9.16915        -4.43417        -6.48758
             836               1         21.6112         9.94531         10.0927        -4.36935
             837               1         7.29432        -7.64138    -235.723E-03    -779.737E-03
             838               1         6.85371        -6.94355     247.866E-03    -211.492E-03
             839               1         18.7635         6.39362         8.22817        -7.67990
             840               1         6.44996        -1.47037        -1.58672        -6.42969
             841               1         15.7545    -146.989E-03         3.45095        -14.6495
             842               1         11.6037         6.41012     15.0393E-03        -6.98452
             843               1         18.7511         5.74904        -10.0759        -1.84215
             844               1         21.8384         19.0761         2.77374        -3.91224
             845               1         19.9710        -19.1774        -1.59853         1.15117
             846               1         20.0797         18.9104     938.157E-03        -2.04917
             847               1         7.12169         6.51889        -1.44295    -290.226E-03
             848               1         7.64783        -7.85404         1.84890        -2.52360
             849               1         21.4505         4.92652        -11.4604        -4.45763
             850               1         19.2626        -20.0179    -671.539E-03        -1.69288
             851               1         7.48773         7.79844    -354.181E-03     724.628E-03
             852               1         7.59166        -7.28398     663.596E-03     422.479E-03
             853               1         7.30573        -8.00205     396.629E-03        -1.79263
             854               1         7.01727        -7.00276     657.830E-03    -159.994E-03
             855               1         19.3420        -18.8843        -1.39467     598.410E-03
             856               1         11.9589        -1.30873         6.23240        -5.67465
             857               1         7.64456         7.84395    -728.377E-03     650.593E-03
             858               1         8.42116         8.49721    -486.533E-03     241.886E-03
             859               1         21.6266         20.6395        -1.12445        -1.69798
             860               1         9.85612         8.74687         1.70843        -1.19488
             861               1         10.0231        -6.16213     446.274E-03        -11.5301
             862               1         12.7286        -12.1890         3.84645        -8.58498
             863               1         19.8752         13.6603        -7.42730        -2.63428
             864               1         16.4832         6.61995         8.12986        -3.05757
             865               1         18.6131        -3.43704        -10.4518        -4.86021
             866               1         13.0778         7.94329        -4.50239        -3.95884
             867               1         20.1789         18.7093        -2.38440        -1.94143
             868               1         10.4079         9.17186        -1.42470        -1.67057
             869               1         5.25743        -3.94828        -2.27029        -1.27678
             870               1         19.9959         19.7085         1.27695    -325.329E-03
             871               1         7.62144        -7.36341         1.14240    -6.61740E-03
             872               1         14.9167         9.57677         5.51857        -3.10831
             873               1         19.7389        -1.79976        -11.3283        -2.38430
             874               1         24.2276        -4.56287         13.6863        -5.35003
             875               1         18.4153     216.084E-03         10.5723        -1.83247
             876               1         11.5180        -4.84187        -4.38443        -9.99797
             877               1         15.9100         2.85409        -8.07752        -5.73391
             878               1         24.2554        -4.87401        -13.7265        -4.72911


  Minimum                            714.393E-03        -87.7707        -42.9284        -123.655
      At Element                               4              55             294             204
          Int Pt                               1               1               1               1

  Maximum                                118.102         50.7073         43.8788         5.32369
      At Element                             304             267              63             188
          Int Pt                               1               1               1               1

           Total                     26.6575E+03         669.083        -40.6635    -3.87236E+03


