********************************************************************************
Field Output Report, written Wed Jun 12 09:30:04 2019

Source 1
---------

   ODB: C:/Users/maduguls/Desktop/sashi/tuss_shell/auto_inp.odb
   Step: Step-1
   Frame: Increment      1: Step Time =   2.2200E-16

Loc 1 : Integration point values from source 1

Output sorted by column "Element Label".

Field Output reported at integration points for part: PART-1-1

   Element Label             Int         S.Mises           S.S11           S.S22           S.S33           S.S12
                              Pt          @Loc 1          @Loc 1          @Loc 1          @Loc 1          @Loc 1
-----------------------------------------------------------------------------------------------------------------
               1               1         1.38490        -1.32923     1.44527E-03              0.    -222.989E-03
               2               1     21.1153E-03     10.3127E-03     10.8026E-03              0.     10.5548E-03
               3               1         3.47712         3.39498    -37.6499E-03              0.    -380.910E-03
               4               1         3.56874        -3.60254    -143.308E-03              0.    -290.608E-03
               5               1         3.31281         3.27902    -61.4979E-03              0.     75.9585E-03
               6               1     128.648E-03    -38.1401E-03    -1.72180E-03              0.     71.0827E-03
               7               1         2.80501         2.77993    -21.3857E-03              0.     163.423E-03
               8               1     820.510E-03    -84.6030E-03    -761.832E-03              0.    -223.714E-03
               9               1         3.12716        -2.59882    -468.042E-03              0.         1.15796
              10               1         4.98045         4.99206     24.2842E-03              0.     40.2299E-03
              11               1     465.227E-03    -30.3756E-03    -68.6294E-03              0.     266.388E-03
              12               1         4.47373        -4.55664    -179.411E-03              0.    -110.480E-03
              13               1     43.8640E-03    -36.2806E-03     11.2634E-03              0.    -4.90804E-03
              14               1         5.06554         5.07985     28.8648E-03              0.     14.9452E-03
              15               1         3.97765        -3.95655     41.7071E-03              0.     14.2867E-03
              16               1     502.752E-03     179.705E-03    -292.972E-03              0.     165.312E-03
              17               1         4.60471        -4.61433    -20.7503E-03              0.    -46.8170E-03
              18               1         3.24077         3.13301    -99.5506E-03              0.     348.830E-03
              19               1         4.16493         4.16420     5.45833E-03              0.    -97.9995E-03
              20               1         10.3622        -8.51714        -5.10832              0.        -4.17318
              21               1     160.821E-03    -16.5182E-03    -134.579E-03              0.    -56.8686E-03
              22               1         3.98676        -3.96501     42.8832E-03              0.     18.9630E-03
              23               1         4.44979        -4.47775    -56.5854E-03              0.    -13.4886E-03
              24               1         4.95423         4.97841     48.8430E-03              0.    -14.1698E-03
              25               1         4.10201        -4.09372     15.2189E-03              0.    -42.3571E-03
              26               1     172.759E-03     157.185E-03     2.53244E-03              0.    -42.9351E-03
              27               1     51.3283E-03     15.5660E-03     12.5342E-03              0.     28.4622E-03
              28               1     50.4296E-03     14.8849E-03    -887.910E-06              0.     27.7343E-03
              29               1     630.472E-03    -29.7402E-03     62.7727E-03              0.     360.926E-03
              30               1         4.99046         5.01649     52.6041E-03              0.    -14.4975E-03
              31               1     44.3478E-03     10.8302E-03     27.1448E-03              0.     21.6531E-03
              32               1     34.9870E-03     29.1826E-03    -2.52675E-03              0.     9.87167E-03
              33               1         4.12474         4.16797     88.3970E-03              0.    -26.2838E-03
              34               1         3.43966         3.41997    -24.0225E-03              0.    -132.124E-03
              35               1         3.96519        -3.94673     35.6532E-03              0.     36.7438E-03
              36               1         4.01998        -4.00661     24.4511E-03              0.     53.9600E-03
              37               1         2.35982        -2.33497     4.02255E-03              0.    -189.080E-03
              38               1     54.3316E-03     15.9849E-03     6.81991E-03              0.    -30.3255E-03
              39               1     676.668E-03    -579.516E-03    -280.911E-06              0.     201.828E-03
              40               1         1.07616        -1.00061    -918.559E-06              0.     229.364E-03
              41               1         4.74183        -4.76342    -43.5926E-03              0.     13.5825E-03
              42               1     25.7935E-03     13.5221E-03     12.2715E-03              0.     12.8816E-03
              43               1         4.92845         4.95308     49.7245E-03              0.    -11.5784E-03
              44               1         3.73598        -3.37483    -752.044E-03              0.         1.23025
              45               1         2.47995        -2.25754    -27.5147E-03              0.     609.659E-03
              46               1     59.9650E-03    -30.4625E-03     26.0543E-03              0.    -19.9610E-03
              47               1     21.0743E-03     10.2590E-03     10.8153E-03              0.    -10.5335E-03
              48               1         3.35527        -3.33875    -9.75507E-03              0.    -218.370E-03
              49               1         1.55566         1.05639    -353.613E-03              0.    -518.180E-03
              50               1     41.8069E-03    -34.0543E-03     10.9613E-03              0.     5.61813E-03
              51               1         5.86610        -5.57452        -3.06652              0.         1.91718
              52               1     51.2656E-03     351.996E-06     46.8646E-03              0.     12.2235E-03
              53               1     164.198E-03     116.018E-03    -51.4359E-03              0.    -40.3638E-03
              54               1         3.98399        -3.96786     30.0051E-03              0.     52.6075E-03
              55               1     26.1480E-03     2.53888E-03     45.8896E-06              0.    -15.0265E-03
              56               1     878.590E-03    -808.814E-03    -21.4087E-03              0.     211.816E-03
              57               1     186.507E-03    -42.2482E-03    -59.1906E-03              0.     103.275E-03
              58               1         3.20108         3.09807    -27.7151E-03              0.    -432.928E-03
              59               1         2.57636         2.40164    -160.470E-03              0.     390.998E-03
              60               1         4.11016        -4.10178     15.6124E-03              0.     38.7982E-03
              61               1         2.81648         2.79136    -21.0020E-03              0.    -165.147E-03
              62               1         4.49793        -4.60402    -759.733E-03              0.    -807.263E-03
              63               1         2.32024        -2.29008     11.3857E-03              0.     193.948E-03
              64               1         3.19473        -3.26289    -145.086E-03              0.     63.7557E-03
              65               1         3.11659        -3.11445    -30.8382E-03              0.    -190.074E-03
              66               1         1.91381        -1.87649     4.81516E-03              0.     210.065E-03
              67               1         2.62222         2.41183    -191.846E-03              0.    -431.904E-03
              68               1     28.0456E-03    -20.5676E-03    -29.5655E-03              0.    -5.70087E-03
              69               1         2.34983        -2.32442     3.96514E-03              0.     191.115E-03
              70               1         4.60171        -4.61330    -24.6473E-03              0.     45.7297E-03
              71               1     60.7276E-03    -30.4153E-03     27.2928E-03              0.     19.8976E-03
              72               1         3.17785        -3.14578     59.7842E-03              0.     60.9930E-03
              73               1         3.33368         3.31305    -39.8664E-03              0.    -33.7243E-03
              74               1         2.08529        -1.80523     421.893E-06              0.     602.444E-03
              75               1         4.13833         4.17860     82.8686E-03              0.    -38.7835E-03
              76               1     343.223E-03    -240.200E-03    -496.247E-06              0.    -141.686E-03
              77               1         4.67887        -4.68798    -19.1521E-03              0.    -37.0435E-03
              78               1         2.22242         1.17908    -108.271E-03              0.        -1.06607
              79               1         1.16689         1.02982    -16.7545E-03              0.    -307.446E-03
              80               1     85.6310E-03     66.6618E-03     11.4594E-03              0.    -34.2610E-03
              81               1         4.16498         4.14081    -47.4780E-03              0.     25.0954E-03
              82               1         3.38600         3.35180    -63.6038E-03              0.    -66.2423E-03
              83               1         4.17249         4.16696    -5.16712E-03              0.     90.3588E-03
              84               1         1.17983         1.22742     102.349E-03              0.     14.1588E-03
              85               1     53.5858E-03     46.7397E-03     13.9448E-03              0.    -19.5291E-03
              86               1     31.1138E-03    -154.214E-06     10.5371E-03              0.     16.8858E-03
              87               1         2.39896         2.39164    -14.4525E-03              0.    -9.42949E-03
              88               1     31.6129E-03    -752.014E-06     9.53465E-03              0.    -17.3275E-03
              89               1         4.77671        -4.79992    -46.9586E-03              0.     17.0563E-03
              90               1         4.17365         4.15091    -44.2662E-03              0.     34.8106E-03
              91               1         2.94743         2.86469    -49.2053E-03              0.    -335.395E-03
              92               1         5.05490         5.07884     48.2167E-03              0.    -2.40676E-03
              93               1         4.92749        -4.59804    -201.309E-03              0.        -1.15805
              94               1         2.50606     311.707E-03        -2.33551              0.    -13.4670E-03
              95               1         4.67618        -4.68458    -17.7299E-03              0.     36.6995E-03
              96               1         4.55255        -4.55707    -37.1718E-03              0.    -205.665E-03
              97               1         4.13463         4.11048    -47.8673E-03              0.     1.67646E-03
              98               1         2.85410         2.84312     11.7411E-03              0.     178.684E-03
              99               1         4.99935         5.02093     43.5615E-03              0.     14.3931E-03
             100               1         3.34571        -3.33770     15.8105E-03              0.    -13.5328E-03
             101               1         2.35995        -2.50206    -363.105E-03              0.    -169.086E-03
             102               1         4.92392         4.95044     53.4579E-03              0.    -1.25382E-03
             103               1         1.35779    -943.297E-03    -56.6128E-03              0.    -578.500E-03
             104               1         4.18623         4.21500     58.2888E-03              0.     14.6954E-03
             105               1         4.94645        -5.16264    -780.728E-03              0.    -641.784E-03
             106               1         4.20194         4.17786    -47.7339E-03              0.     6.80700E-03
             107               1         3.32096         3.27445    -80.1041E-03              0.    -112.658E-03
             108               1         4.19266         4.16933    -46.2641E-03              0.     1.16405E-03
             109               1     213.923E-03    -44.2538E-03    -219.807E-03              0.     41.7003E-03
             110               1         2.33309        -2.30183     13.9936E-03              0.    -193.633E-03
             111               1         2.06325         2.02736    -20.1905E-03              0.    -187.481E-03
             112               1     53.8416E-03     47.2704E-03     13.3516E-03              0.     19.2986E-03
             113               1         3.25468         3.24645     9.53770E-03              0.     167.694E-03
             114               1         2.42502         2.39687    -7.21294E-03              0.     198.624E-03
             115               1     164.563E-03     118.278E-03    -50.2129E-03              0.     39.2885E-03
             116               1         1.16345         1.02536    -17.5823E-03              0.     307.626E-03
             117               1     25.9153E-03     3.21555E-03     215.407E-06              0.     14.8538E-03
             118               1         2.42556        -2.56785    -384.713E-03              0.     207.660E-03
             119               1         4.16801         4.14533    -44.2812E-03              0.    -31.4543E-03
             120               1     43.8651E-03     11.0142E-03     28.1411E-03              0.    -20.9830E-03
             121               1     68.6192E-03    -7.10415E-03     11.5025E-03              0.     38.4886E-03
             122               1         2.30066        -2.27364     47.9973E-03              0.     63.7348E-03
             123               1     78.4055E-03    -12.0847E-03     71.2528E-03              0.     4.59527E-03
             124               1         4.61518        -4.83890        -1.07523              0.     802.453E-03
             125               1     161.748E-03     146.968E-03    -25.7771E-03              0.    -6.05792E-03
             126               1     25.8934E-03     13.5567E-03     12.3367E-03              0.    -12.9323E-03
             127               1         3.42727         3.40734    -24.2628E-03              0.     132.898E-03
             128               1     69.9660E-03     7.44645E-03    -3.72135E-03              0.     39.9926E-03
             129               1     84.6966E-03     66.7701E-03     12.3687E-03              0.     33.6063E-03
             130               1         3.72888        -1.40130        -2.49419              0.         1.75262
             131               1         1.96194         1.87305    -69.2030E-03              0.    -262.350E-03
             132               1         2.44207        -2.22774    -28.3351E-03              0.    -595.318E-03
             133               1         2.86648         2.85516     10.8854E-03              0.    -178.596E-03
             134               1         4.39035        -1.24593        -2.57409              0.         2.18358
             135               1     78.2956E-03     3.64815E-03     3.42949E-03              0.     45.1576E-03
             136               1         2.06868        -1.80724    -16.2786E-03              0.     589.477E-03
             137               1         2.30795        -2.53671    -854.700E-03              0.    -331.332E-03
             138               1         4.97086         4.98410     27.4865E-03              0.    -38.6189E-03
             139               1         4.97766         4.99845     41.9451E-03              0.    -12.5909E-03
             140               1         4.93408         4.95305     38.1695E-03              0.     283.279E-06
             141               1         3.30090         3.25544    -85.5711E-03              0.     63.6811E-03
             142               1         5.07070         5.08739     33.5687E-03              0.     4.66914E-03
             143               1         3.18590         3.08609    -20.8564E-03              0.     432.516E-03
             144               1         2.43709        -2.45030    -26.6729E-03              0.    -5.89174E-03
             145               1         3.95389        -3.93562     35.1759E-03              0.    -38.4752E-03
             146               1         4.27280        -4.27294    -373.780E-06              0.    -11.4993E-03
             147               1         4.11442         4.09259    -43.3170E-03              0.     721.335E-06
             148               1         4.94743         4.96750     40.5065E-03              0.    -13.3611E-03
             149               1         2.44935         2.41980    -20.8822E-03              0.     176.006E-03
             150               1         10.2164        -8.52509        -5.43687              0.        -4.02031
             151               1         2.39228         1.93253    -59.9174E-03              0.     789.293E-03
             152               1         2.72924        -2.70898     4.53564E-03              0.     180.632E-03
             153               1         3.64403         3.63798     8.03551E-03              0.    -156.208E-03
             154               1         4.02426        -3.98324    -31.4316E-03              0.    -388.440E-03
             155               1     78.7447E-03    -46.0682E-03     9.60528E-03              0.     34.3690E-03
             156               1         1.84980     619.032E-03    -344.572E-03              0.     949.830E-03
             157               1         2.43661         2.40781    -8.33008E-03              0.    -199.493E-03
             158               1         4.21381         4.21184    -2.95008E-03              0.     37.5600E-03
             159               1         4.78559        -4.80943    -48.1619E-03              0.    -13.9596E-03
             160               1         3.96174        -3.99382    -65.4857E-03              0.     25.5921E-03
             161               1         3.13095         3.10907    -22.1158E-03              0.     149.720E-03
             162               1         4.72450        -4.73590    -23.1513E-03              0.     20.8483E-03
             163               1         5.02314         5.04216     38.7028E-03              0.    -27.0045E-03
             164               1         4.51847        -4.53404    -32.6017E-03              0.    -44.0711E-03
             165               1         4.29271         4.29108     6.86945E-03              0.    -120.273E-03
             166               1         2.73790        -2.71742     6.10901E-03              0.    -178.006E-03
             167               1         2.82397        -2.80685    -93.4778E-06              0.    -179.543E-03
             168               1         3.68829         3.66779    -29.8729E-03              0.    -115.930E-03
             169               1         4.74339         4.75085     19.2029E-03              0.    -81.6913E-03
             170               1         2.80420        -2.28511        -1.08976              0.         1.14666
             171               1         2.45511         2.42576    -20.8512E-03              0.    -175.329E-03
             172               1         4.14391         4.12301    -41.4390E-03              0.     7.83488E-03
             173               1         4.02090        -4.00743     24.3047E-03              0.    -58.0690E-03
             174               1         2.55894         2.37841    -22.5944E-03              0.     528.245E-03
             175               1         1.73155    -469.318E-03        -1.34270              0.    -731.513E-03
             176               1         3.97881        -3.96307     29.3818E-03              0.    -50.8889E-03
             177               1         3.70228         3.64779    -24.7145E-03              0.     321.328E-03
             178               1         2.48873        -2.55509    -147.044E-03              0.     80.4458E-03
             179               1         4.93665         4.96316     53.4570E-03              0.     1.10150E-03
             180               1     411.022E-03    -96.1089E-03    -347.945E-03              0.     155.002E-03
             181               1         4.84623        -4.86387    -35.4761E-03              0.    -1.52951E-03
             182               1         5.04830         5.07019     44.0711E-03              0.     727.210E-06
             183               1         3.47690        -3.52780    -210.582E-03              0.    -337.622E-03
             184               1         4.20862         4.18809    -40.5002E-03              0.     19.8124E-03
             185               1         4.21921         4.19877    -40.5952E-03              0.    -3.34119E-03
             186               1         4.26106         4.23890    -43.9314E-03              0.    -6.54990E-03
             187               1         4.45804        -4.48559    -55.6965E-03              0.     10.6964E-03
             188               1         4.09432         4.07254    -43.0329E-03              0.    -15.8268E-03
             189               1         2.58205        -2.53297        -2.58731              0.     191.859E-03
             190               1         4.51775        -4.53376    -33.3272E-03              0.     40.8625E-03
             191               1         3.96585        -3.94556     40.1230E-03              0.     14.3928E-03
             192               1         4.72856        -4.74121    -25.7637E-03              0.    -23.7123E-03
             193               1         1.50715    -582.587E-03    -203.653E-03              0.    -818.388E-03
             194               1         2.53229         2.39501    -156.915E-03              0.    -303.309E-03
             195               1         4.28912        -4.09453    -903.638E-03              0.         1.22676
             196               1         2.94518         2.85955    -50.6992E-03              0.     341.333E-03
             197               1         4.73387         4.74190     20.7251E-03              0.     85.1142E-03
             198               1         3.42773         3.38922    -72.2156E-03              0.    -64.6437E-03
             199               1         3.69323        -3.12153        -1.08835              0.        -1.42698
             200               1         1.87010        -1.82703     12.7184E-03              0.     212.794E-03
             201               1         2.05309         2.01707    -20.2984E-03              0.     187.306E-03
             202               1         1.55437         1.05068    -356.634E-03              0.     519.698E-03
             203               1     52.5662E-03     11.6890E-03     11.5186E-03              0.     29.6003E-03
             204               1         2.20191     534.793E-03    -610.576E-03              0.         1.13476
             205               1     44.5359E-03    -504.515E-06     38.0272E-03              0.     13.1395E-03
             206               1         2.81699        -2.79904     7.11999E-06              0.     183.333E-03
             207               1     320.116E-03     16.8868E-03    -309.404E-03              0.     20.2784E-03
             208               1     33.3234E-03    -12.7919E-03     19.5531E-03              0.     10.2367E-03
             209               1     169.727E-03     155.850E-03     3.61818E-03              0.     41.1057E-03
             210               1         3.74655        -1.40618        -2.50744              0.        -1.76049
             211               1         3.11541        -3.11203    -29.2503E-03              0.     192.588E-03
             212               1     490.805E-03     119.324E-03    -221.889E-03              0.     224.306E-03
             213               1     49.7410E-03    -4.38706E-03     38.0048E-03              0.    -16.7713E-03
             214               1     51.1426E-03     29.0436E-03    -2.02729E-03              0.    -23.8680E-03
             215               1     109.147E-03     101.634E-03     18.9426E-06              0.    -22.9899E-03
             216               1     51.8328E-03     12.9117E-03    -1.92222E-03              0.    -28.8179E-03
             217               1     40.9927E-03    -162.153E-06     34.2387E-03              0.    -12.9426E-03
             218               1     73.9132E-03    -9.42804E-03     67.5018E-03              0.    -7.77520E-03
             219               1     44.8246E-03    -265.922E-06     44.5697E-03              0.    -1.90314E-03
             220               1         4.22750        -4.38236    -406.559E-03              0.    -307.162E-03
             221               1         4.50021        -4.60518    -753.626E-03              0.     805.578E-03
             222               1         4.08826         4.06696    -42.1021E-03              0.     15.7261E-03
             223               1     284.590E-03     257.690E-03    -44.1907E-03              0.     20.3900E-03
             224               1         5.97311    -65.8527E-03        -6.00122              0.     134.484E-03
             225               1         3.62602         3.62055     8.86790E-03              0.     154.566E-03
             226               1         4.29228        -4.10029    -906.490E-03              0.        -1.22562
             227               1     505.791E-03     181.537E-03    -294.002E-03              0.    -166.393E-03
             228               1     632.059E-03    -30.3349E-03     63.2356E-03              0.    -361.783E-03
             229               1     57.8239E-03    -10.2730E-03     5.48100E-03              0.    -32.4125E-03
             230               1     445.187E-03    -359.024E-03    -52.4297E-03              0.     168.689E-03
             231               1     336.967E-03    -233.816E-03    -924.173E-06              0.     140.348E-03
             232               1         2.18930         2.00800    -27.1184E-03              0.     485.047E-03
             233               1         1.35153     508.354E-03    -29.7416E-03              0.     719.304E-03
             234               1         3.31224         3.27298    -72.7950E-03              0.     70.6105E-03
             235               1         1.95358         1.86461    -69.7070E-03              0.     261.323E-03
             236               1         1.61205         1.56014    -17.7977E-03              0.     213.373E-03
             237               1         1.49630        -1.44240     1.89547E-03              0.     227.780E-03
             238               1         1.37608        -1.31938     2.17244E-03              0.     223.592E-03
             239               1     252.011E-03    -106.471E-03    -239.841E-03              0.     82.0280E-03
             240               1         4.02198        -3.98063    -32.2167E-03              0.     390.795E-03
             241               1         3.56948        -3.60311    -143.885E-03              0.     292.412E-03
             242               1     57.0993E-03     15.8314E-03    -42.2378E-03              0.    -13.6258E-03
             243               1         2.41867        -2.51754        -2.30315              0.     43.7679E-03
             244               1     372.599E-03    -107.266E-03    -210.129E-03              0.    -187.714E-03
             245               1         4.85998        -4.69290    -259.292E-03              0.    -956.688E-03
             246               1         3.35214        -3.33537    -9.95486E-03              0.     220.078E-03
             247               1         3.96792         3.96402     6.86129E-03              0.     139.145E-03
             248               1         10.3413        -8.50158        -5.11502              0.         4.16282
             249               1         2.18189        -1.53861    -86.5994E-03              0.     916.347E-03
             250               1         4.27036         4.26963     8.91503E-03              0.     121.469E-03
             251               1         3.67541         3.65455    -30.1069E-03              0.     118.370E-03
             252               1         4.92203        -4.59637    -202.291E-03              0.         1.15306
             253               1         9.71029        -4.96411        -11.1815              0.     206.802E-03
             254               1         4.52411         4.52940     17.7645E-03              0.     103.764E-03
             255               1         3.86755         3.84419    -37.3709E-03              0.     108.137E-03
             256               1         3.99909         3.97454    -43.0659E-03              0.     86.9488E-03
             257               1         4.88018         4.88950     21.1274E-03              0.     62.5961E-03
             258               1         4.10318         4.07947    -44.5420E-03              0.     58.4862E-03
             259               1         4.19171         4.16873    -45.5682E-03              0.    -4.23786E-03
             260               1         4.96433         4.99043     52.7028E-03              0.     11.2862E-03
             261               1         2.16058     721.954E-03    -287.552E-03              0.         1.13381
             262               1         1.93435         1.68863    -14.0499E-03              0.     537.373E-03
             263               1         4.26545         4.24317    -44.1948E-03              0.     5.59335E-03
             264               1         5.02958         5.04654     34.4762E-03              0.     24.9822E-03
             265               1         3.70228        -3.85458        -2.09592              0.     919.265E-03
             266               1         2.87926        -2.67945    -87.7461E-03              0.    -667.862E-03
             267               1         4.15685         4.13486    -43.6082E-03              0.     6.54620E-03
             268               1         4.20229         4.17826    -47.2515E-03              0.     23.7875E-03
             269               1         4.24784         4.27307     51.0722E-03              0.     15.3163E-03
             270               1         3.11726        -3.08205     68.4531E-03              0.     29.4569E-03
             271               1         4.82432        -4.83746    -26.4476E-03              0.     10.4761E-03
             272               1         5.07843         5.09511     33.5345E-03              0.    -4.60092E-03
             273               1         4.02034        -3.99922     41.8854E-03              0.     6.67041E-03
             274               1         1.92643         1.42415    -123.435E-03              0.     705.196E-03
             275               1         4.23219         4.21074    -42.5683E-03              0.     3.14321E-03
             276               1         4.76153        -4.77946    -36.1762E-03              0.    -13.8404E-03
             277               1         5.02158         5.03777     32.5729E-03              0.    -7.77137E-03
             278               1         4.16249         4.13714    -50.1273E-03              0.    -13.1144E-03
             279               1         3.15843        -3.12983     56.2620E-03              0.     13.5517E-03
             280               1         2.19396     186.265E-03    -721.962E-03              0.        -1.17233
             281               1         3.98729        -3.96657     40.9916E-03              0.    -13.3139E-03
             282               1         4.82833        -4.84275    -29.0442E-03              0.    -11.1148E-03
             283               1         2.86869        -2.66375    -85.9452E-03              0.     672.152E-03
             284               1         1.84559     618.583E-03    -342.244E-03              0.    -947.757E-03
             285               1         3.96937        -3.94830     41.7714E-03              0.    -7.76468E-03
             286               1         5.03453         5.04972     30.5188E-03              0.     3.01737E-03
             287               1         5.06756         5.08096     27.0813E-03              0.    -17.3763E-03
             288               1     35.3271E-03     29.2586E-03    -2.20174E-03              0.    -10.3710E-03
             289               1     161.821E-03     146.612E-03    -26.4759E-03              0.     6.01286E-03
             290               1         2.44277         2.44520     27.4280E-03              0.     134.750E-03
             291               1         4.84038        -4.86039    -40.2677E-03              0.     919.701E-06
             292               1         4.01428        -3.99255     43.0969E-03              0.    -4.85813E-03
             293               1         1.34792     511.247E-03    -28.0404E-03              0.    -716.562E-03
             294               1         4.06532        -4.04439     41.5445E-03              0.     4.21506E-03
             295               1         3.95765        -3.93732     40.1070E-03              0.    -18.0391E-03
             296               1         1.71209        -1.35663    -4.63274E-03              0.     604.722E-03
             297               1         3.13643        -2.29641        -3.51826              0.    -297.143E-03
             298               1         2.58947         2.40594    -229.766E-03              0.     322.070E-03
             299               1         4.55215        -4.55713    -37.3837E-03              0.     203.006E-03
             300               1         4.20317         4.18080    -44.3465E-03              0.    -7.36876E-03
             301               1         2.71184         2.60374    -39.2800E-03              0.     396.134E-03
             302               1         2.46393         2.32558    -31.1301E-03              0.    -443.204E-03
             303               1         4.27377        -4.27416    -841.406E-06              0.     9.46677E-03
             304               1     111.009E-03     102.792E-03    -994.244E-06              0.     23.4790E-03
             305               1         4.37235        -1.23398        -2.56386              0.        -2.17448
             306               1         4.46176        -4.54411    -177.814E-03              0.     107.633E-03
             307               1         1.61724         1.56495    -17.4676E-03              0.    -215.053E-03
             308               1         4.92713        -5.14556    -788.494E-03              0.     641.723E-03
             309               1         3.43393        -3.45057    -45.6188E-03              0.     116.617E-03
             310               1         4.20476         4.18370    -41.4655E-03              0.    -22.1655E-03
             311               1         10.2481        -8.53330        -5.47047              0.         4.03983
             312               1     248.718E-03    -105.685E-03    -238.618E-03              0.    -79.5218E-03
             313               1         2.09429        -1.81503     2.86608E-03              0.    -601.811E-03
             314               1         3.48215        -3.72665    -973.109E-03              0.    -552.857E-03
             315               1     50.9066E-03     30.1878E-03    -1.69538E-03              0.     23.2818E-03
             316               1     158.239E-03    -15.4499E-03    -133.371E-03              0.     54.9961E-03
             317               1         3.39649         3.36034    -66.1240E-03              0.     76.7593E-03
             318               1         4.84959        -4.67463    -255.310E-03              0.     965.169E-03
             319               1         9.75600        -4.98849        -11.2345              0.    -203.356E-03
             320               1         4.09880         4.07519    -44.7384E-03              0.    -53.7687E-03
             321               1         4.87931         4.88923     22.0580E-03              0.    -59.1516E-03
             322               1         4.00603         3.98198    -42.7266E-03              0.    -82.0329E-03
             323               1         3.88117         3.85809    -37.3316E-03              0.    -105.249E-03
             324               1         4.54064         4.54582     17.2070E-03              0.    -101.367E-03
             325               1     38.2287E-03    -10.8297E-03     17.1255E-03              0.    -16.9843E-03
             326               1     49.6608E-03    -13.5942E-03     30.4914E-03              0.    -17.6745E-03
             327               1         1.50560        -1.45217     1.85431E-03              0.    -227.567E-03
             328               1         1.87964        -1.83713     11.6998E-03              0.    -213.195E-03
             329               1         3.98861         3.98388     5.25245E-03              0.    -139.703E-03
             330               1         3.14385         3.12192    -21.8520E-03              0.    -151.360E-03
             331               1     54.1048E-03     14.2086E-03     10.5265E-03              0.    -30.3546E-03
             332               1         3.37741         3.35634    -41.5514E-03              0.     15.4498E-03
             333               1     189.997E-03    -48.6601E-03    -59.3232E-03              0.    -105.037E-03
             334               1     132.006E-03    -39.8705E-03    -1.38044E-03              0.    -72.7762E-03
             335               1     889.174E-03    -820.363E-03    -20.2423E-03              0.    -211.212E-03
             336               1         1.08748        -1.01383    -1.13985E-03              0.    -227.974E-03
             337               1         1.92486        -1.88744     4.73775E-03              0.    -211.082E-03
             338               1         3.26515         3.25790     11.5969E-03              0.    -168.245E-03
             339               1     55.1751E-03     17.1292E-03     5.53943E-03              0.     30.6327E-03
             340               1         2.88283         2.75211    -18.3822E-03              0.     478.079E-03
             341               1     36.2288E-03    -23.9896E-03    -28.9082E-03              0.     14.0811E-03
             342               1         2.22478         1.95013    -44.0449E-03              0.    -594.088E-03
             343               1     284.694E-03     256.856E-03    -45.1382E-03              0.    -21.9403E-03
             344               1     76.7125E-03     6.72129E-03     3.77139E-03              0.    -44.1617E-03
             345               1         5.95046    -65.1606E-03        -5.97808              0.    -136.442E-03
             346               1         3.96829        -3.99327    -50.8999E-03              0.     24.6110E-03
             347               1         2.48895        -2.26664    -21.1643E-03              0.    -606.828E-03
             348               1     671.617E-03    -290.950E-03    -222.391E-03              0.    -356.681E-03
             349               1     454.749E-03    -369.878E-03    -51.1954E-03              0.    -169.610E-03
             350               1     686.756E-03    -591.346E-03    -109.318E-06              0.    -201.666E-03
             351               1     49.4771E-03    -3.92431E-03     38.0316E-03              0.     16.7027E-03
             352               1     52.5790E-03    -40.1677E-03     6.91753E-03              0.    -16.5871E-03
             353               1         4.20313         4.20426     3.93593E-03              0.     48.4291E-03
             354               1     67.1260E-03     10.8468E-03    -1.91680E-03              0.    -38.1392E-03
             355               1     50.2679E-03     1.45442E-03     46.2350E-03              0.    -12.3061E-03
             356               1     51.0541E-03     18.2045E-03     13.7235E-03              0.    -27.9083E-03
             357               1     44.5289E-03    -1.32643E-03     36.4704E-03              0.    -14.1727E-03
             358               1     77.5528E-03    -11.8878E-03     70.5686E-03              0.    -4.25416E-03
             359               1     44.1130E-03    -624.821E-06     43.6652E-03              0.     1.96958E-03
             360               1     73.4375E-03    -9.49691E-03     67.0334E-03              0.     7.58906E-03
             361               1     40.9588E-03    -868.119E-06     32.8026E-03              0.     13.8128E-03
             362               1         3.12118        -3.11836     3.22017E-03              0.    -50.1481E-03
             363               1         3.17873         3.17692    -3.54189E-03              0.     8.76765E-03
             364               1         2.71797         2.61226    -38.5805E-03              0.    -392.078E-03
             365               1         1.74596        -1.41610    -22.7139E-03              0.     598.528E-03
             366               1         3.40974        -3.52429    -890.426E-03              0.    -719.019E-03
             367               1     48.8415E-03    -13.3820E-03     29.2001E-03              0.     17.9166E-03
             368               1     58.5334E-03    -10.5747E-03     5.11932E-03              0.     32.8329E-03
             369               1     58.5114E-03    -35.0897E-03     32.3773E-03              0.    -1.62221E-03
             370               1         3.46619         3.38514    -34.7766E-03              0.     381.407E-03
             371               1     409.058E-03    -137.578E-03    -332.753E-03              0.     166.789E-03
             372               1         2.01791         1.55395    -68.0265E-03              0.     718.066E-03
             373               1         2.60074         2.25112    -65.8516E-03              0.     717.340E-03
             374               1         3.17080         3.16036     1.24412E-03              0.    -152.781E-03
             375               1         1.72260    -467.015E-03        -1.33237              0.     729.445E-03
             376               1     464.248E-03     78.6486E-03    -268.965E-03              0.     196.507E-03
             377               1         2.21407         1.94244    -36.4018E-03              0.     593.579E-03
             378               1     664.140E-03    -285.316E-03    -224.855E-03              0.     352.738E-03
             379               1         4.05898        -4.15276    -202.181E-03              0.     97.7712E-03
             380               1         3.26613         3.15169    -117.780E-03              0.    -341.268E-03
             381               1         3.24821        -3.22313     46.7261E-03              0.    -56.2783E-03
             382               1         2.29939     175.726E-03    -271.697E-03              0.        -1.30828
             383               1         3.95528        -3.96814    -26.5673E-03              0.     30.5265E-03
             384               1         1.71769        -1.36819    -9.72984E-03              0.    -603.248E-03
             385               1         4.09828        -3.27004        -4.56168              0.     265.002E-03
             386               1     37.7744E-03    -24.5479E-03    -28.9614E-03              0.    -15.2369E-03
             387               1     366.551E-03    -104.976E-03    -207.222E-03              0.     184.528E-03
             388               1         2.92868        -2.75553    -116.265E-03              0.    -656.027E-03
             389               1         2.24903        -2.22044     46.7445E-03              0.     85.3243E-03
             390               1         3.02095         2.80378    -119.851E-03              0.    -552.129E-03
             391               1         3.13816        -2.29392        -3.52410              0.     289.085E-03
             392               1         3.45843         3.42758    -59.8689E-03              0.     34.6861E-03
             393               1     64.9710E-03    -22.8056E-03    -2.06478E-03              0.    -35.3269E-03
             394               1         3.45200         3.42275    -56.0829E-03              0.    -44.7928E-03
             395               1         3.99333        -4.04683    -109.316E-03              0.    -10.1538E-03
             396               1         1.45445        -1.03572    -46.7837E-03              0.     602.492E-03
             397               1         3.30507         3.25507    -93.4851E-03              0.     70.5127E-03
             398               1         2.92658        -2.74883    -115.021E-03              0.     661.259E-03
             399               1         2.43888        -2.22006    -30.5024E-03              0.     601.742E-03
             400               1         4.19355         4.19513     3.28295E-03              0.     13.4436E-03
             401               1     349.553E-03    -158.467E-06    -349.178E-03              0.    -10.2830E-03
             402               1         4.12547         4.12926     8.86426E-03              0.    -41.9433E-03
             403               1         2.42709     328.510E-03        -1.36444              0.         1.07593
             404               1         4.19766         4.20510     17.5904E-03              0.    -60.8128E-03
             405               1         1.33044    -199.392E-03    -210.365E-03              0.     758.950E-03
             406               1         4.14974         4.16751     36.2853E-03              0.    -26.4406E-03
             407               1         4.24972         4.28263     66.6688E-03              0.    -9.71372E-03
             408               1         3.37702         3.34851    -55.7795E-03              0.    -24.8258E-03
             409               1         4.22874         4.21725    -21.6951E-03              0.    -41.2541E-03
             410               1         1.92406     775.358E-03    -360.636E-03              0.    -947.125E-03
             411               1         1.68954         1.33073    -10.7284E-03              0.     597.029E-03
             412               1     70.8816E-03    -8.43186E-03     11.0307E-03              0.    -39.7426E-03
             413               1         3.73786        -3.37891    -754.975E-03              0.        -1.22957
             414               1         3.90098         3.86179    -28.3275E-03              0.    -254.303E-03
             415               1         3.95413        -3.97431    -41.3538E-03              0.     29.7537E-03
             416               1         6.15259        -5.36840        -2.75502              0.         2.32627
             417               1         4.76734        -3.47088        -4.78105              0.         1.21334
             418               1         3.37471        -3.48678    -903.905E-03              0.     722.429E-03
             419               1     64.4920E-03    -21.3721E-03    -2.82217E-03              0.     35.3780E-03
             420               1     77.4279E-03    -44.9620E-03     8.65105E-03              0.    -34.2038E-03
             421               1         4.01308        -4.00975     6.27956E-03              0.    -22.5155E-03
             422               1         2.19785         2.01804    -23.1677E-03              0.    -486.742E-03
             423               1         2.56462         2.38735    -17.0620E-03              0.    -528.143E-03
             424               1     819.349E-03    -287.287E-03    -79.6158E-03              0.     449.197E-03
             425               1         3.33114         3.31490    -31.7765E-03              0.    -22.8336E-03
             426               1         2.50970         1.98105    -233.659E-03              0.    -786.668E-03
             427               1         4.10693         4.10971     6.35544E-03              0.    -32.6459E-03
             428               1         4.00568        -4.00803    -4.86744E-03              0.     13.9044E-03
             429               1         3.25423        -3.22273     59.7508E-03              0.    -51.2500E-03
             430               1         3.96432        -3.98726    -46.7223E-03              0.    -23.7059E-03
             431               1         3.15994        -3.13166     55.0236E-03              0.     29.3718E-03
             432               1         2.66625        -2.11322    -426.116E-03              0.        -1.05863
             433               1         2.45486        -1.87127    -188.696E-03              0.    -973.343E-03
             434               1         3.48120        -3.33798    -342.832E-03              0.    -817.199E-03
             435               1         3.33439        -3.09568    -243.328E-03              0.    -861.981E-03
             436               1         4.01357         3.98912    -18.7828E-03              0.     200.304E-03
             437               1         2.47196         2.39668    -116.164E-03              0.    -157.708E-03
             438               1         4.61550        -4.83248        -1.03113              0.    -789.450E-03
             439               1         2.67378        -2.10719    -421.511E-03              0.         1.06761
             440               1         1.46077        -1.05108    -48.3062E-03              0.    -599.308E-03
             441               1         2.34431     368.395E-03    -363.537E-03              0.        -1.30307
             442               1         3.14194        -3.16580    -49.0996E-03              0.     28.9218E-03
             443               1     408.877E-03    -137.761E-03    -333.968E-03              0.    -166.008E-03
             444               1     464.363E-03     78.1171E-03    -269.089E-03              0.    -196.724E-03
             445               1     827.388E-03    -297.976E-03    -78.2762E-03              0.    -452.024E-03
             446               1     55.1051E-03    -46.0431E-03    -35.5868E-03              0.     20.7261E-03
             447               1     473.419E-03    -30.8815E-03    -68.3273E-03              0.    -271.178E-03
             448               1         1.00112    -566.051E-03    -142.002E-03              0.     497.337E-03
             449               1         3.15096         3.07747    -61.4884E-03              0.    -297.023E-03
             450               1         3.71666         3.66009    -29.0799E-03              0.    -321.481E-03
             451               1         4.19113         4.19473     7.36482E-03              0.    -14.5805E-03
             452               1         3.31239         3.27902    -65.3908E-03              0.    -20.2798E-03
             453               1     954.519E-03     293.833E-03    -662.962E-03              0.    -251.959E-03
             454               1         3.94191        -3.96177    -40.7867E-03              0.    -31.6377E-03
             455               1         4.07782         4.09961     44.6291E-03              0.     30.5537E-03
             456               1         3.15598        -3.12469     58.5718E-03              0.    -57.8205E-03
             457               1         3.36546         3.33526    -57.2911E-03              0.    -51.7783E-03
             458               1         1.81119    -944.612E-03    -90.1209E-03              0.    -906.485E-03
             459               1         1.93587         1.43255    -124.573E-03              0.    -707.438E-03
             460               1         1.60098     969.075E-03    -52.9952E-03              0.    -723.385E-03
             461               1         2.97084    -72.6548E-03        -1.25461              0.        -1.56394
             462               1     32.6057E-03    -13.1255E-03     17.7657E-03              0.    -10.6778E-03
             463               1     50.3410E-03    -46.8097E-03    -53.1845E-03              0.    -1.15860E-03
             464               1         1.93412         1.69252    -14.7759E-03              0.    -532.603E-03
             465               1         2.07396        -1.66095        -2.16148              0.    -391.871E-03
             466               1         1.23277         1.20064     16.6474E-03              0.     180.649E-03
             467               1         2.89207         2.76121    -17.1582E-03              0.    -480.313E-03
             468               1         6.17583        -5.38479        -2.77406              0.        -2.33718
             469               1         4.80022        -3.48296        -4.78368              0.        -1.25019
             470               1         3.25392        -3.23017     43.9498E-03              0.     58.1470E-03
             471               1         3.95345        -3.98481    -64.2893E-03              0.    -31.8271E-03
             472               1         3.44410         3.40033    -81.4899E-03              0.     72.7827E-03
             473               1         3.99420        -4.03998    -93.2293E-03              0.     7.31295E-03
             474               1         3.09287        -3.06012     64.4391E-03              0.    -8.28553E-03
             475               1         2.82647         2.54620    -109.454E-03              0.    -636.437E-03
             476               1     973.526E-03     34.9459E-03    -269.753E-03              0.     536.761E-03
             477               1         3.88578         3.85033    -19.3283E-03              0.     257.856E-03
             478               1         2.21469        -2.28661    -168.930E-03              0.    -106.477E-03
             479               1     51.7050E-03    -52.8608E-03    -48.3719E-03              0.    -5.66492E-03
             480               1         3.47952        -3.33155    -341.658E-03              0.     822.461E-03
             481               1         3.64066        -3.82373        -1.85007              0.    -872.717E-03
             482               1         3.20225         3.12641    -84.7611E-03              0.     263.168E-03
             483               1         2.46457         2.46735     5.56664E-03              0.    -1.72821E-03
             484               1         5.80468        -5.55040        -2.91967              0.        -1.87689
             485               1         4.10718        -3.27718        -4.56727              0.    -281.009E-03
             486               1         2.39808         1.94046    -54.6028E-03              0.    -790.883E-03
             487               1         2.48186         2.42728    -90.9991E-03              0.    -113.671E-03
             488               1         3.31278     416.181E-03        -2.67295              0.     920.907E-03
             489               1         2.97637    -78.1695E-03        -1.25967              0.         1.56678
             490               1         1.14542    -639.862E-03    -66.6281E-03              0.     559.989E-03
             491               1         1.35224    -933.136E-03    -58.5198E-03              0.     579.942E-03
             492               1         2.45176         2.31430    -31.9722E-03              0.     439.747E-03
             493               1         4.10898         4.08896    -24.4988E-03              0.     145.263E-03
             494               1         3.33328         3.28080    -88.2921E-03              0.     128.583E-03
             495               1     53.8212E-03    -54.4008E-03    -49.8681E-03              0.     7.37828E-03
             496               1         3.13332        -2.61020    -468.822E-03              0.        -1.15592
             497               1         2.75658         1.39250        -1.71433              0.     333.440E-03
             498               1     59.2307E-03    -14.7830E-03    -65.0993E-03              0.    -2.17454E-03
             499               1     54.3693E-03    -47.2945E-03    -33.9180E-03              0.    -19.7734E-03
             500               1     182.486E-03     4.86958E-03    -54.5615E-03              0.     100.058E-03
             501               1         3.27017         3.20543    -89.7700E-03              0.     202.868E-03
             502               1         4.27961        -3.42504        -2.40133              0.         1.73613
             503               1         3.02027         2.79841    -134.313E-03              0.     546.810E-03
             504               1         2.33057         2.30148    -53.7909E-03              0.    -51.8695E-03
             505               1         3.34062        -3.10015    -245.625E-03              0.     866.022E-03
             506               1         3.12718         3.05007    -64.0666E-03              0.     303.745E-03
             507               1         1.92502     773.453E-03    -367.712E-03              0.     946.548E-03
             508               1         1.59679     969.811E-03    -54.7321E-03              0.     719.517E-03
             509               1         3.43816        -3.45119    -37.4468E-03              0.    -112.584E-03
             510               1         4.06827        -4.15383    -185.050E-03              0.    -101.555E-03
             511               1         2.08577         1.16686    -104.732E-03              0.     975.655E-03
             512               1         2.19871         1.85305    -77.3294E-03              0.    -645.827E-03
             513               1         2.37860     951.363E-03        -1.07058              0.     928.797E-03
             514               1         2.62874         2.20183    -254.452E-03              0.    -692.144E-03
             515               1     53.7921E-03    -42.0350E-03     5.00350E-03              0.     17.2366E-03
             516               1         3.34899        -3.34134     15.2270E-03              0.    -4.13230E-03
             517               1         2.81886         2.54434    -90.8652E-03              0.     641.056E-03
             518               1         2.18839        -1.12304    -245.471E-03              0.         1.11703
             519               1         2.69342        -2.13151    -211.153E-03              0.        -1.01926
             520               1         2.46672        -2.59956    -361.329E-03              0.    -212.715E-03
             521               1         4.17502         4.21004     71.9534E-03              0.    -37.0054E-03
             522               1         3.28734        -3.41096    -287.042E-03              0.    -151.283E-03
             523               1         4.17494         4.19770     46.7553E-03              0.     34.1505E-03
             524               1         3.94631        -3.96429    -37.0646E-03              0.    -33.2355E-03
             525               1         3.31108         3.28136    -52.8349E-03              0.     81.1662E-03
             526               1         4.07574         4.09160     32.1780E-03              0.    -18.7483E-03
             527               1         4.04963        -4.08150    -64.5175E-03              0.    -2.75865E-03
             528               1         3.25317        -3.21449     71.1215E-03              0.     74.0858E-03
             529               1         3.11610        -3.08308     64.9512E-03              0.     8.74992E-03
             530               1         3.97361        -3.99573    -44.8492E-03              0.     17.7854E-03
             531               1         3.69776        -3.11635        -1.07111              0.         1.43206
             532               1         3.18058         3.17556    -9.96060E-03              0.    -8.43134E-03
             533               1     180.397E-03     179.081E-03     29.7503E-03              0.    -40.4784E-03
             534               1         2.11713    -670.732E-03    -108.123E-03              0.        -1.16807
             535               1         2.50028     354.748E-03    -646.433E-03              0.        -1.35134
             536               1         3.14053        -3.11387     52.6104E-03              0.    -8.21468E-03
             537               1         3.38385         3.35665    -49.9518E-03              0.    -66.1599E-03
             538               1         3.97315        -3.99934    -53.4576E-03              0.    -26.5194E-03
             539               1         3.13473        -3.10433     59.9295E-03              0.     3.44561E-03
             540               1         3.35285         3.31852    -65.0093E-03              0.     54.9700E-03
             541               1         2.21745        -2.18549     62.3684E-03              0.     13.1985E-03
             542               1         2.25721        -2.50194    -859.395E-03              0.     286.857E-03
             543               1         2.98400        -2.35923        -2.99900              0.    -687.897E-03
             544               1         2.61158         2.26064    -71.4509E-03              0.    -717.222E-03
             545               1         3.38402         3.34569    -65.2405E-03              0.     108.566E-03
             546               1         2.27248         2.27561     33.3721E-03              0.     142.122E-03
             547               1         3.46416         3.43875    -50.1275E-03              0.     13.7389E-03
             548               1         3.09291        -3.05883     65.4336E-03              0.    -41.7387E-03
             549               1         3.20768         3.05893    -107.685E-03              0.    -443.900E-03
             550               1         3.47498        -3.53011    -215.092E-03              0.     330.072E-03
             551               1         4.15433         4.16399     19.4522E-03              0.     9.14592E-03
             552               1         3.30695         3.28375    -44.6772E-03              0.     37.4339E-03
             553               1         4.22479        -4.37832    -406.149E-03              0.     312.222E-03
             554               1         2.58475         2.50757    -142.893E-03              0.    -68.9562E-03
             555               1         3.28985         3.33442     91.1937E-03              0.    -12.9373E-03
             556               1         1.35141        -1.28507    -999.135E-03              0.     391.824E-03
             557               1         2.36002         2.12337    -88.0086E-03              0.    -537.393E-03
             558               1         2.34579        -1.69765    -83.3986E-03              0.     958.355E-03
             559               1     185.874E-03     5.24504E-03    -55.2899E-03              0.    -101.939E-03
             560               1         4.02082         3.99421    -25.3335E-03              0.    -192.758E-03
             561               1         3.22196         3.14934    -84.1844E-03              0.    -251.953E-03
             562               1         4.10338         4.08740    -17.0570E-03              0.    -142.416E-03
             563               1         3.27193         3.21367    -83.4408E-03              0.    -185.097E-03
             564               1         1.28230     187.138E-03        -1.15504              0.     140.241E-03
             565               1     215.892E-03    -43.6725E-03    -221.666E-03              0.    -41.8214E-03
             566               1         3.38677         3.37551    -4.68057E-03              0.    -141.780E-03
             567               1     59.8567E-03    -14.4106E-03    -65.5552E-03              0.     2.73046E-03
             568               1         2.11578        -2.17320    -122.455E-03              0.     40.2285E-03
             569               1         1.00895    -575.141E-03    -135.824E-03              0.    -498.951E-03
             570               1         1.15123    -657.378E-03    -66.0156E-03              0.    -557.443E-03
             571               1     58.1150E-03    -52.7436E-03     7.43302E-03              0.     7.02776E-03
             572               1         3.29365     412.241E-03        -2.65807              0.    -915.988E-03
             573               1         2.03105     522.790E-03    -358.772E-03              0.         1.08560
             574               1         1.69900         1.33760    -11.9897E-03              0.    -600.347E-03
             575               1         2.07353        -1.81171    -12.8659E-03              0.    -588.893E-03
             576               1         1.75707        -1.42839    -24.0105E-03              0.    -600.195E-03
             577               1     786.681E-03    -160.944E-03    -501.777E-03              0.     375.030E-03
             578               1         3.35056         3.26976    -124.115E-03              0.     194.679E-03
             579               1         2.74559         1.38970        -1.70381              0.    -334.798E-03
             580               1         2.49978     308.590E-03        -2.33104              0.     14.4931E-03
             581               1     59.2444E-03    -37.4731E-03     30.7585E-03              0.     1.52366E-03
             582               1     38.0675E-03    -10.6317E-03     15.9402E-03              0.     17.4407E-03
             583               1     56.4264E-03     16.4244E-03    -42.0601E-03              0.     12.3059E-03
             584               1     27.6468E-03    -19.5914E-03    -29.8692E-03              0.     4.95090E-03
             585               1         1.34812     7.25771E-03    -698.794E-03              0.     664.327E-03
             586               1     122.633E-03    -52.9575E-03    -128.029E-03              0.    -29.5703E-03
             587               1         3.37029         3.32932    -73.8967E-03              0.     87.5875E-03
             588               1         3.11814        -3.16260    -91.2567E-03              0.     18.4178E-03
             589               1     494.848E-03     120.109E-03    -223.879E-03              0.    -226.154E-03
             590               1         2.40076         1.72289    -189.873E-03              0.     900.396E-03
             591               1     733.683E-03    -24.5970E-03    -641.610E-03              0.    -217.412E-03
             592               1         1.79323    -904.046E-03    -84.0953E-03              0.     906.887E-03
             593               1         2.34604        -1.70689    -87.3797E-03              0.    -954.283E-03
             594               1         1.83216     754.003E-03    -112.323E-03              0.     947.097E-03
             595               1         1.70613         1.54176    -206.666E-03              0.     239.781E-03
             596               1         2.53239        -1.31699        -1.29584              0.         1.25246
             597               1         2.20165        -2.21343    -23.7683E-03              0.    -3.86556E-03
             598               1         2.62353         2.41538    -277.617E-03              0.    -316.873E-03
             599               1         2.15626        -1.49294    -74.7991E-03              0.    -917.728E-03
             600               1         3.33878         3.26766    -101.702E-03              0.    -205.908E-03
             601               1         1.06130        -1.03687     45.5919E-03              0.    -25.2634E-03
             602               1         1.19551        -1.24821    -298.602E-03              0.    -227.132E-03
             603               1         3.14397        -3.17280    -58.8141E-03              0.    -18.4847E-03
             604               1         2.59230         2.39239    -256.361E-03              0.     325.288E-03
             605               1     196.566E-03     190.260E-03     35.9322E-03              0.    -51.5913E-03
             606               1         2.03691         1.57602    -62.3046E-03              0.    -721.824E-03
             607               1         1.83284         1.02485    -53.7783E-03              0.    -866.211E-03
             608               1         3.10149        -3.11563    -28.6558E-03              0.     13.0449E-03
             609               1         3.19196         3.17231    -13.4468E-03              0.    -165.523E-03
             610               1         2.32232         2.36171     88.2175E-03              0.     73.1534E-03
             611               1         2.58208         2.40862    -102.554E-03              0.    -450.247E-03
             612               1         2.44295        -2.49520    -116.571E-03              0.    -80.1081E-03
             613               1         3.39825         3.36963    -45.7303E-03              0.     111.864E-03
             614               1         2.10967        -2.13694    -56.5744E-03              0.    -25.0709E-03
             615               1         2.61312         2.52722    -151.400E-03              0.     109.532E-03
             616               1         1.57100     669.389E-03        -1.07811              0.    -212.881E-03
             617               1         2.26396        -2.39392    -336.152E-03              0.     169.709E-03
             618               1         1.49860    -572.069E-03    -219.490E-03              0.     815.662E-03
             619               1         1.69999    -174.199E-03    -479.398E-03              0.     951.021E-03
             620               1         2.68942        -2.12572    -210.360E-03              0.         1.01935
             621               1         1.22761        -1.16149     98.4942E-03              0.    -106.249E-03
             622               1         3.29565         3.20761    -104.613E-03              0.     274.467E-03
             623               1         3.37648        -3.56598    -525.733E-03              0.    -307.015E-03
             624               1     733.148E-03    -26.2470E-03    -642.035E-03              0.     217.147E-03
             625               1         3.24259         3.20973    -41.4584E-03              0.    -160.447E-03
             626               1         2.36664         2.40662     83.3003E-03              0.     29.8546E-03
             627               1         3.19617        -3.28167    -182.705E-03              0.    -64.2285E-03
             628               1         1.85212         1.04111    -46.3772E-03              0.     874.835E-03
             629               1         2.59498         2.38019    -228.334E-03              0.     397.077E-03
             630               1         1.27795     187.548E-03        -1.15064              0.    -139.308E-03
             631               1     822.358E-03    -84.9442E-03    -763.180E-03              0.     224.678E-03
             632               1         1.33176    -218.451E-03    -206.162E-03              0.    -759.032E-03
             633               1         2.38163         2.11875    -95.9880E-03              0.     568.759E-03
             634               1     793.650E-03    -161.782E-03    -504.757E-03              0.    -378.853E-03
             635               1         1.37123         1.31972    -97.3559E-03              0.     14.9114E-03
             636               1         2.18007        -2.26308    -190.877E-03              0.     94.3409E-03
             637               1         2.27729        -2.23702     74.6102E-03              0.    -55.6999E-03
             638               1         2.38209        -2.34859     65.4101E-03              0.     13.5366E-03
             639               1         3.07080        -3.10351    -66.6923E-03              0.    -13.5516E-03
             640               1         2.16077        -2.12362     70.0022E-03              0.    -43.2066E-03
             641               1         1.94888    -434.163E-03    -224.834E-03              0.         1.10404
             642               1         1.28877        -1.29609    -50.5514E-03              0.    -121.153E-03
             643               1         2.18835     174.292E-03    -739.410E-03              0.         1.16661
             644               1         2.81757        -2.46914        -2.12180              0.    -927.184E-03
             645               1     979.656E-03     33.1429E-03    -267.797E-03              0.    -540.998E-03
             646               1         1.15412    -330.515E-03    -379.972E-03              0.    -633.497E-03
             647               1         2.20607         1.57207    -67.8585E-03              0.     872.553E-03
             648               1         1.89648         1.26958    -64.2322E-03              0.     795.640E-03
             649               1     59.3776E-03    -54.8599E-03     5.30718E-03              0.    -8.09881E-03
             650               1     44.7726E-03    -36.7703E-03    -31.7458E-03              0.     16.4524E-03
             651               1         2.65543         2.44636    -158.814E-03              0.    -466.508E-03
             652               1         3.14005        -3.11766     32.3992E-03              0.    -112.615E-03
             653               1     414.422E-03    -96.1523E-03    -349.110E-03              0.    -157.258E-03
             654               1     44.2824E-03    -37.1868E-03    -31.2109E-03              0.    -15.9644E-03
             655               1         1.90449     754.047E-03    -136.660E-03              0.     989.409E-03
             656               1     953.210E-03     296.849E-03    -657.526E-03              0.     253.617E-03
             657               1         2.27378        -2.23003     72.3432E-03              0.     100.770E-03
             658               1         1.28447         1.27092    -17.7925E-03              0.     62.4519E-03
             659               1         1.33207        -1.29842    -15.2795E-03              0.     189.849E-03
             660               1     255.150E-03     175.229E-03     5.11320E-03              0.     108.422E-03
             661               1         2.11335         1.77458    -168.157E-03              0.    -574.582E-03
             662               1     57.6240E-03    -43.7171E-03    -42.7998E-03              0.     21.9742E-03
             663               1     138.373E-03    -12.4608E-03    -136.485E-03              0.    -26.2315E-03
             664               1         1.79290    -920.220E-03    -88.2055E-03              0.    -902.050E-03
             665               1         3.30440         3.21078    -119.172E-03              0.    -266.525E-03
             666               1     317.276E-03     16.6548E-03    -306.640E-03              0.    -20.4266E-03
             667               1         3.48295        -3.72696        -1.04310              0.     588.850E-03
             668               1         3.37537        -3.57326    -557.134E-03              0.     319.024E-03
             669               1         3.34002         3.30580    -49.0870E-03              0.     144.611E-03
             670               1         3.39389         3.32278    -129.903E-03              0.    -98.4856E-03
             671               1         2.45554         2.44456    -19.6424E-03              0.    -42.3137E-03
             672               1         2.23342         1.17400    -403.146E-03              0.    -995.669E-03
             673               1         2.58799         2.42680    -156.018E-03              0.    -367.593E-03
             674               1         1.44608        -1.66332    -944.867E-03              0.    -33.4747E-03
             675               1         2.42416        -2.60315        -1.63984              0.    -476.043E-03
             676               1         2.48504         2.44916    -67.5450E-03              0.     48.5232E-03
             677               1         3.34753         3.32094    -37.4495E-03              0.    -131.118E-03
             678               1         3.10329        -3.10772    -9.36144E-03              0.     22.5827E-03
             679               1         3.38585         3.34590    -69.3745E-03              0.    -103.285E-03
             680               1         2.59586         2.54073    -90.6029E-03              0.    -122.199E-03
             681               1         2.51058     355.795E-03    -661.207E-03              0.         1.35450
             682               1         1.14820    -326.170E-03    -387.406E-03              0.     629.354E-03
             683               1         2.13170    -120.644E-03    -228.282E-03              0.        -1.22543
             684               1     125.675E-03    -66.3124E-03    -133.400E-03              0.    -28.5613E-03
             685               1     49.4025E-03    -50.2430E-03    -48.0147E-03              0.     2.78291E-03
             686               1         1.18236        -1.17935    -3.22233E-03              0.     60.3246E-03
             687               1         2.16118     721.958E-03    -281.647E-03              0.        -1.13531
             688               1         2.03137     524.767E-03    -354.876E-03              0.        -1.08612
             689               1         2.62662         2.39423    -271.884E-03              0.    -383.805E-03
             690               1         2.57251         2.43063    -263.354E-03              0.     11.6889E-03
             691               1         1.78712    -904.955E-03    -87.9827E-03              0.     903.097E-03
             692               1         2.21954        -1.45652    -918.898E-03              0.        -1.04864
             693               1         2.30370    -488.734E-03    -200.370E-03              0.         1.30715
             694               1         2.56954         2.45124    -220.905E-03              0.    -34.9581E-03
             695               1     215.850E-03     40.7008E-03    -44.4183E-03              0.    -117.124E-03
             696               1         1.53026        -1.54441    -38.4620E-03              0.     69.2954E-03
             697               1         2.10036    -68.0388E-03    -177.274E-03              0.        -1.20934
             698               1         1.93250     615.126E-03    -114.565E-03              0.        -1.04444
             699               1         2.38695         2.40214     57.1801E-03              0.    -143.019E-03
             700               1         3.17331         3.14483    -12.7060E-03              0.     215.868E-03
             701               1         3.48060         3.40474    -146.663E-03              0.     22.0841E-03
             702               1         3.22603         3.20510    -14.2245E-03              0.    -172.055E-03
             703               1         2.12935        -2.09391     69.1905E-03              0.    -3.95135E-03
             704               1         1.20348         1.18465    -32.3144E-03              0.     43.3393E-03
             705               1         1.61293    -579.233E-03    -153.303E-03              0.     881.536E-03
             706               1         3.14184        -3.17186    -61.0118E-03              0.     9.40471E-03
             707               1     135.886E-03    -13.1251E-03    -134.645E-03              0.     25.3685E-03
             708               1     121.292E-03    -52.8227E-03    -127.700E-03              0.     28.0467E-03
             709               1     57.8308E-03    -43.9067E-03    -41.7230E-03              0.    -22.4181E-03
             710               1         2.54517         2.35981    -116.067E-03              0.     455.279E-03
             711               1         2.14281    -791.434E-03    -125.118E-03              0.        -1.16170
             712               1         2.54853         2.34198    -159.295E-03              0.     451.544E-03
             713               1         1.87588         1.53213    -495.376E-03              0.    -236.030E-03
             714               1         1.97717        -1.22368    -60.5574E-03              0.     909.621E-03
             715               1         2.05173        -1.29313    -55.5082E-03              0.     932.040E-03
             716               1         1.57911     667.275E-03        -1.08890              0.     212.940E-03
             717               1         2.15192     358.284E-03        -1.63684              0.     642.058E-03
             718               1         2.55290         2.42241    -167.206E-03              0.     268.461E-03
             719               1         2.43849        -1.84993    -185.604E-03              0.     971.745E-03
             720               1         2.18898        -2.16479     41.6965E-03              0.     66.5485E-03
             721               1         1.27075        -1.26483    -11.1126E-03              0.    -98.2582E-03
             722               1         2.58294        -2.54188        -2.55374              0.    -245.058E-03
             723               1         2.38468        -2.50304        -2.24128              0.    -52.2617E-03
             724               1         2.18461     523.562E-03    -593.301E-03              0.        -1.13075
             725               1         2.00543        -1.83961        -1.48011              0.     624.413E-03
             726               1         2.19775         1.85648    -71.9334E-03              0.     644.176E-03
             727               1         3.17346         3.04576    -70.5641E-03              0.     437.527E-03
             728               1         2.60705         2.37024    -172.001E-03              0.     497.122E-03
             729               1         2.54937         2.54601    -4.64939E-03              0.    -41.7309E-03
             730               1         2.18235     68.3001E-03    -385.706E-03              0.         1.23597
             731               1         2.42362        -2.62941    -643.778E-03              0.     281.907E-03
             732               1         2.97996        -2.37592        -3.04777              0.     629.161E-03
             733               1         2.75792        -2.44704        -2.09410              0.     886.418E-03
             734               1         2.61220         2.17484    -276.091E-03              0.     687.265E-03
             735               1         2.02471        -1.67989        -2.16089              0.     281.677E-03
             736               1         2.59920         2.54526    -86.5565E-03              0.     128.675E-03
             737               1         3.38958         3.34351    -85.4995E-03              0.     75.3387E-03
             738               1         1.89247    -105.652E-03    -354.487E-03              0.         1.07735
             739               1         1.28458         1.24206    -72.7059E-03              0.    -62.8354E-03
             740               1         1.39663        -1.60658    -743.598E-03              0.    -61.0601E-03
             741               1         2.25691        -2.20794     87.7509E-03              0.     75.7462E-03
             742               1         3.07720        -3.09154    -30.4565E-03              0.    -39.8737E-03
             743               1         3.11586        -3.16858    -110.045E-03              0.    -41.8353E-03
             744               1         2.23874        -2.20183     68.7355E-03              0.    -51.0604E-03
             745               1         2.25628        -2.22560     57.3562E-03              0.    -46.7563E-03
             746               1         3.27028        -3.40505    -313.341E-03              0.     151.788E-03
             747               1         2.37484        -2.37611    -3.79134E-03              0.    -31.3148E-03
             748               1         3.30273         3.30760     10.0635E-03              0.    -18.0784E-03
             749               1         2.40600         2.40346    -3.75939E-03              0.    -32.2834E-03
             750               1         2.73882        -1.73269    -466.432E-03              0.        -1.30250
             751               1         2.12127        -1.88308        -1.62203              0.    -677.552E-03
             752               1         2.52475        -1.12749    -749.570E-03              0.        -1.33995
             753               1         2.76606        -2.25394        -1.08681              0.        -1.13126
             754               1         4.29324        -3.43333        -2.43681              0.        -1.73901
             755               1         2.55459         2.45759    -131.037E-03              0.    -221.343E-03
             756               1         3.16692        -3.13549     52.5947E-03              0.     100.703E-03
             757               1         2.25451        -2.24645     14.7387E-03              0.    -31.1930E-03
             758               1     353.397E-03    -104.388E-06    -352.964E-03              0.     10.6896E-03
             759               1     53.1175E-03    -47.8297E-03    -57.1395E-03              0.     781.196E-06
             760               1     127.289E-03    -66.5196E-03    -134.960E-03              0.     29.1033E-03
             761               1         1.61319    -613.985E-03    -153.562E-03              0.    -874.852E-03
             762               1         2.40283     314.778E-03        -1.35210              0.        -1.06782
             763               1         2.36634     946.713E-03        -1.06188              0.    -925.638E-03
             764               1         2.30270        -1.12903    -182.990E-03              0.        -1.18333
             765               1     51.1375E-03    -50.8647E-03    -50.7806E-03              0.    -3.27115E-03
             766               1         2.13965     352.775E-03        -1.63306              0.    -635.268E-03
             767               1         2.26559        -1.33207    -462.960E-03              0.         1.11965
             768               1         2.09526         1.16990    -121.713E-03              0.    -977.113E-03
             769               1         1.84901     753.872E-03    -108.587E-03              0.    -958.623E-03
             770               1         2.05550        -1.30990    -58.8209E-03              0.    -927.873E-03
             771               1         1.96978        -1.20248    -51.1511E-03              0.    -911.584E-03
             772               1         1.91092         1.31043    -50.7766E-03              0.    -788.516E-03
             773               1         2.21069         1.57655    -68.2797E-03              0.    -873.564E-03
             774               1         2.11725         2.07641    -39.9833E-03              0.    -169.973E-03
             775               1         2.27797         1.44597    -124.235E-03              0.     983.738E-03
             776               1         2.20124     652.338E-03    -173.393E-03              0.         1.19398
             777               1         2.48654         2.43175    -84.9596E-03              0.     136.178E-03
             778               1         1.99402    -520.399E-03    -216.440E-03              0.        -1.12118
             779               1         2.44596        -2.66146        -1.00026              0.     432.431E-03
             780               1         2.13578         1.68722    -254.464E-03              0.     637.898E-03
             781               1         1.44326        -1.65910    -909.415E-03              0.    -63.7166E-03
             782               1         1.95418         1.54554    -503.361E-03              0.    -364.607E-03
             783               1         1.99190     403.048E-03    -141.219E-03              0.        -1.11480
             784               1         2.18166        -1.06315    -241.309E-03              0.        -1.12955
             785               1         2.52274         2.01778    -206.587E-03              0.     781.716E-03
             786               1         1.81758        -2.06441        -1.35019              0.     45.1582E-03
             787               1         1.70439    -185.452E-03    -464.088E-03              0.    -955.900E-03
             788               1         2.20494         1.16870    -95.0146E-03              0.         1.06079
             789               1         1.75259         1.64796    -158.100E-03              0.    -153.036E-03
             790               1         2.32938    -40.9233E-03    -390.357E-03              0.         1.32764
             791               1         2.45691        -2.59949        -1.91340              0.     444.153E-03
             792               1         1.86038        -2.09671        -1.44776              0.    -38.0812E-03
             793               1         2.48527        -1.38381    -255.128E-03              0.        -1.23148
             794               1         2.47621        -2.72291        -1.00456              0.    -384.516E-03
             795               1         2.20223     876.637E-03    -115.789E-03              0.        -1.14984
             796               1         1.97971    -439.338E-03    -189.647E-03              0.        -1.12155
             797               1         1.88477    -109.519E-03    -339.659E-03              0.        -1.07428
             798               1         2.18936     25.4078E-03    -373.245E-03              0.        -1.24416
             799               1         2.25464        -2.22918     49.7882E-03              0.    -15.2384E-03
             800               1         1.69358     607.827E-03    -715.219E-03              0.    -719.375E-03
             801               1         1.63135     263.071E-03    -438.261E-03              0.    -872.684E-03
             802               1         1.40797     175.451E-03    -889.022E-03              0.     578.866E-03
             803               1         1.90055     57.2122E-03        -1.04161              0.    -906.325E-03
             804               1         2.21936         1.02186    -211.003E-03              0.        -1.09867
             805               1         1.13359        -1.10651     43.0869E-03              0.    -60.9078E-03
             806               1         2.10708        -2.07336     14.8397E-03              0.    -191.463E-03
             807               1         1.43253        -1.59555    -452.511E-03              0.     88.7175E-03
             808               1         2.11719        -2.09448     17.5838E-03              0.    -139.673E-03
             809               1         2.19264        -2.19632    -10.3678E-03              0.    -46.5994E-03
             810               1         1.54768        -1.61442    -149.908E-03              0.    -53.1832E-03
             811               1         2.16968     449.875E-03    -533.177E-03              0.         1.15195
             812               1         1.46913         1.39833    -100.706E-03              0.    -131.723E-03
             813               1         2.40501        -2.30707     185.098E-03              0.     8.02118E-03
             814               1         2.36950     387.775E-03    -363.121E-03              0.         1.31548
             815               1         2.09208     174.863E-03    -290.171E-03              0.         1.18480
             816               1         2.38526        -2.55301    -497.015E-03              0.    -253.945E-03
             817               1         1.91429     59.7655E-03        -1.05126              0.     911.587E-03
             818               1         1.64235     272.467E-03    -444.641E-03              0.     876.397E-03
             819               1         1.75193         1.46851    -411.223E-03              0.     215.828E-03
             820               1         1.95722         1.12306    -134.244E-03              0.    -894.553E-03
             821               1         1.26477         1.29253     58.6177E-03              0.     20.9842E-03
             822               1         2.13965        -2.07980     43.8806E-03              0.     230.445E-03
             823               1         1.40272     178.208E-03    -882.257E-03              0.    -577.424E-03
             824               1         1.34503     8.81378E-03    -700.759E-03              0.    -661.259E-03
             825               1         2.50181        -1.42141    -253.346E-03              0.         1.22944
             826               1         1.69659     601.526E-03    -725.343E-03              0.     719.758E-03
             827               1         1.93759     342.536E-03    -188.503E-03              0.         1.08579
             828               1         2.21440        -1.27563    -448.009E-03              0.        -1.10259
             829               1         2.98907        -2.06822    -911.482E-03              0.        -1.37978
             830               1         2.24864     581.313E-03    -192.980E-03              0.        -1.23411
             831               1         2.07072     219.483E-03    -287.840E-03              0.        -1.16814
             832               1         2.28810         1.48093    -111.609E-03              0.    -977.157E-03
             833               1         1.91040     875.447E-03    -118.484E-03              0.    -960.113E-03
             834               1         1.75751     895.732E-03    -472.973E-03              0.     739.175E-03
             835               1         1.01837        -1.02711    -19.3669E-03              0.     23.3910E-03
             836               1         2.01044     529.984E-03    -134.778E-03              0.         1.10626
             837               1         1.97453     555.823E-03    -130.127E-03              0.         1.08021
             838               1         2.22911    -223.700E-03    -218.040E-03              0.         1.28064
             839               1         2.26348     558.970E-03    -198.317E-03              0.         1.24642
             840               1         2.04815    -584.290E-03    -95.1262E-03              0.        -1.14018
             841               1         2.73449        -1.75070    -480.802E-03              0.         1.29396
             842               1         1.94289         1.14619    -118.716E-03              0.     877.671E-03
             843               1         1.36316         1.36152     1.78615E-03              0.    -48.0120E-03
             844               1         2.19720    -621.828E-03    -220.230E-03              0.        -1.22875
             845               1     741.616E-03     68.1586E-03    -672.151E-03              0.     126.159E-03
             846               1         1.27588    -98.8055E-03    -824.142E-03              0.     583.190E-03
             847               1         2.06974    -835.866E-03    -124.148E-03              0.         1.10657
             848               1         2.03650    -611.460E-03    -120.406E-03              0.         1.13028
             849               1         2.30192        -1.08712    -135.785E-03              0.         1.18970
             850               1         2.44094    -757.662E-03    -409.735E-03              0.        -1.35729
             851               1         2.39875         2.38060    -33.6865E-03              0.    -42.4183E-03
             852               1         2.25619     904.680E-03    -319.235E-03              0.         1.13743
             853               1         1.06670        -1.14405    -234.550E-03              0.     118.774E-03
             854               1         2.50556    -976.847E-03    -455.537E-03              0.         1.36150
             855               1         1.08523        -1.08417     757.811E-06              0.    -22.1211E-03
             856               1         2.16575         2.09626    -85.9099E-03              0.     190.343E-03
             857               1         1.04217        -1.01767     39.0961E-03              0.    -55.2478E-03
             858               1         2.27707     302.725E-03    -134.122E-03              0.        -1.29548
             859               1         1.93647         1.36093    -164.864E-03              0.    -740.772E-03
             860               1         2.39981         1.74431    -190.918E-03              0.    -884.498E-03
             861               1         2.26798     177.877E-03    -321.091E-03              0.         1.28477
             862               1         2.12399    -761.251E-03    -142.604E-03              0.         1.15759
             863               1         1.97060    -353.272E-03    -186.871E-03              0.         1.12391
             864               1         2.57525         2.47051    -187.606E-03              0.     99.7516E-03
             865               1         2.20830     886.279E-03    -109.905E-03              0.         1.15205
             866               1         1.48446         1.35119    -217.216E-03              0.    -111.395E-03
             867               1         1.09714        -1.18193    -346.927E-03              0.     179.297E-03
             868               1         1.23863         1.22561     45.1950E-03              0.    -168.755E-03
             869               1         1.91641         1.59267    -269.959E-03              0.     459.413E-03
             870               1         3.05833        -2.23992        -1.42005              0.         1.35406
             871               1         2.03549         1.49986    -151.763E-03              0.     740.047E-03
             872               1         2.03425         1.58560    -184.464E-03              0.     657.658E-03
             873               1         1.61823         1.59572    -27.6680E-03              0.     95.6486E-03
             874               1         1.47308        -1.55302    -184.555E-03              0.    -59.5966E-03
             875               1         2.36146        -1.61986        -1.90682              0.     895.427E-03
             876               1         2.24084        -1.50099    -860.643E-03              0.         1.05191
             877               1         2.96210        -2.04162    -855.042E-03              0.         1.36875
             878               1         2.22329         1.79384    -263.957E-03              0.    -627.690E-03
             879               1         1.18961         1.22174     73.6589E-03              0.     48.6095E-03
             880               1         1.56263     77.1156E-03    -511.080E-03              0.    -843.651E-03
             881               1         1.49114        -1.63929    -363.624E-03              0.    -4.90374E-03
             882               1         1.12140        -1.10439     18.0894E-03              0.     76.5153E-03
             883               1         2.26621    -86.4467E-03    -96.6035E-03              0.        -1.30732
             884               1         1.16868        -1.15586     22.8389E-03              0.     30.9594E-03
             885               1         2.24619    -145.768E-03    -126.143E-03              0.        -1.29442
             886               1         3.06142        -2.20051        -1.51110              0.        -1.36282
             887               1         2.11011        -1.56162        -1.76953              0.    -740.725E-03
             888               1         1.92769         1.65697    -232.618E-03              0.    -420.674E-03
             889               1         1.30643         1.33007     62.3303E-03              0.     74.5668E-03
             890               1         1.65651    -652.124E-03    -704.826E-03              0.    -872.085E-03
             891               1         1.41177         1.41149     7.33526E-03              0.    -60.8629E-03
             892               1     657.832E-03     466.192E-03    -177.313E-03              0.    -183.763E-03
             893               1         1.27383         1.27874     10.9509E-03              0.    -21.2016E-03
             894               1         1.70495    -846.608E-03        -1.19615              0.    -768.551E-03
             895               1     367.946E-03     296.573E-03     84.0476E-03              0.    -147.525E-03
             896               1         1.12858     558.755E-03    -617.315E-03              0.     280.162E-03
             897               1         1.20175         1.16854    -63.7945E-03              0.    -5.64301E-03
             898               1         2.24172     492.023E-03    -132.496E-03              0.        -1.25173
             899               1         1.18568        -1.29890    -615.119E-03              0.     215.486E-03
             900               1         2.15181        -1.30515        -1.44310              0.    -953.550E-03
             901               1         1.44632        -1.34630        -1.24865              0.    -365.714E-03
             902               1         2.09699    -42.9397E-03    -132.915E-03              0.         1.20880
             903               1         2.14530     14.6381E-03    -172.712E-03              0.         1.23420
             904               1     171.485E-03     52.5525E-03    -10.6443E-03              0.     93.0457E-03
             905               1         2.27870     120.814E-03    -168.391E-03              0.         1.30756
             906               1         1.91025        -1.30439        -1.01103              0.     864.917E-03
             907               1         1.99247     98.8613E-03    -198.652E-03              0.        -1.14033
             908               1         1.93119    -465.713E-03    -387.213E-03              0.        -1.08674
             909               1         1.95061     501.491E-03    -192.803E-03              0.        -1.06764
             910               1         2.22366     726.640E-03    -175.410E-03              0.        -1.19142
             911               1         1.59787    -638.131E-03    -905.747E-03              0.     796.572E-03
             912               1         2.18895    -537.358E-03    -878.896E-03              0.         1.18358
             913               1         1.45103    -954.671E-03        -1.45181              0.    -396.799E-03
             914               1         1.41756        -1.58548        -1.09409              0.     105.412E-03
             915               1         2.38246    -697.565E-03    -258.874E-03              0.         1.32955
             916               1         2.01912    -361.137E-03    -214.472E-03              0.         1.15150
             917               1         1.23361     792.069E-03    -310.436E-03              0.    -429.020E-03
             918               1         1.33535        -1.45394    -847.059E-03              0.    -247.163E-03
             919               1         1.37219     687.258E-03    -443.510E-03              0.     550.475E-03
             920               1     689.733E-03    -651.339E-03    -177.628E-03              0.    -212.629E-03
             921               1     390.497E-03     267.753E-03     28.4235E-03              0.     170.879E-03
             922               1         1.71241         1.49048    -348.389E-03              0.     152.945E-03
             923               1         1.90584         1.51249    -442.907E-03              0.     399.394E-03
             924               1         2.38218         2.34666    -63.8450E-03              0.    -68.5781E-03
             925               1         1.48142        -1.59181    -291.577E-03              0.    -115.278E-03
             926               1     640.363E-03    -648.543E-03    -523.723E-03              0.     135.188E-03
             927               1         1.70818     158.576E-03    -786.016E-03              0.     846.613E-03
             928               1     149.297E-03     62.2099E-03    -93.1248E-03              0.     36.3046E-03
             929               1         1.44883         1.35338    -175.005E-03              0.     970.244E-06
             930               1     531.639E-03    -449.243E-03    -77.1466E-03              0.     191.073E-03
             931               1         2.59463        -1.20936    -799.579E-03              0.         1.36592
             932               1         2.16411         1.52743    -354.510E-03              0.     749.037E-03
             933               1         1.99313    -585.459E-03    -420.003E-03              0.         1.11045
             934               1     476.882E-03     38.2586E-03    -298.553E-03              0.    -204.448E-03
             935               1         1.13500        -1.16485    -119.346E-03              0.    -136.786E-03
             936               1         2.26527    -226.380E-03    -581.650E-03              0.        -1.27456
             937               1     163.048E-03     128.612E-03     25.0612E-03              0.    -64.9065E-03
             938               1         1.34654     725.351E-03    -441.644E-03              0.     507.159E-03
             939               1         1.03880        -1.07942    -96.6665E-03              0.     54.6324E-03
             940               1         2.15394    -408.047E-03        -1.00021              0.        -1.13735
             941               1         1.92836     486.524E-03    -276.188E-03              0.        -1.04423
             942               1         1.93684     470.128E-03    -326.921E-03              0.        -1.04399
             943               1         1.76157    -908.034E-03        -1.58689              0.     632.803E-03
             944               1         1.82281    -708.786E-03    -646.617E-03              0.    -976.465E-03
             945               1         2.53356        -1.36534        -1.14869              0.        -1.26539
             946               1     858.930E-03    -792.406E-03    -744.224E-03              0.    -220.388E-03
             947               1         1.45567        -1.62370    -564.074E-03              0.     163.604E-03
             948               1         1.79913    -740.162E-03    -717.275E-03              0.     949.641E-03
             949               1         2.06322         1.60813    -367.504E-03              0.     561.172E-03
             950               1         2.34043    -432.532E-03    -642.145E-03              0.         1.31097
             951               1         1.74057     169.818E-03    -382.559E-03              0.     964.265E-03
             952               1         1.77188     90.9019E-03    -604.845E-03              0.     950.521E-03
             953               1     338.669E-03     21.4860E-03    -259.231E-03              0.     117.565E-03
             954               1         2.23103         1.39827    -386.183E-03              0.    -881.899E-03
             955               1         2.05396    -293.459E-03    -267.957E-03              0.        -1.17466
             956               1         2.27663     164.927E-03    -387.734E-03              0.        -1.28343
             957               1         2.19267     592.204E-03    -83.8193E-03              0.         1.21112
             958               1         2.19037    -38.0269E-03    -197.333E-03              0.         1.26027
             959               1     714.565E-03    -134.321E-03    -391.499E-03              0.    -361.421E-03
             960               1     919.796E-03    -632.324E-03        -1.05507              0.    -7.28590E-03
             961               1         1.80190     778.588E-03    -235.244E-03              0.     894.825E-03
             962               1         2.24315         1.15073    -348.436E-03              0.         1.03040
             963               1         1.76730     960.478E-03    -304.757E-03              0.     777.867E-03
             964               1         1.24675        -1.21296     64.7056E-03              0.     12.3070E-03
             965               1         1.28182         1.27567    -10.8491E-03              0.    -24.3013E-03
             966               1     283.422E-03     94.3550E-03    -134.588E-03              0.     116.351E-03
             967               1         1.30589    -847.815E-03        -1.30574              0.     359.912E-03
             968               1         1.84478     104.058E-03    -283.130E-03              0.         1.04607
             969               1         2.26476    -716.032E-03    -241.259E-03              0.        -1.25578
             970               1         2.25652    -31.3649E-03    -202.841E-03              0.        -1.29822
             971               1         1.76737     984.299E-03    -405.400E-03              0.    -728.327E-03
             972               1         1.99997         1.61346    -353.804E-03              0.    -483.258E-03
             973               1         1.68674     968.451E-03    -293.521E-03              0.    -715.720E-03
             974               1     153.737E-03     119.868E-03     119.962E-03              0.    -55.5440E-03
             975               1     713.422E-03     386.149E-03    -301.801E-03              0.     225.268E-03
             976               1     881.268E-03     672.560E-03    -313.444E-03              0.    -71.2737E-03
             977               1         1.36840     112.329E-03    -546.114E-03              0.    -707.179E-03
             978               1         2.00210     817.900E-03    -691.439E-03              0.     874.799E-03
             979               1     96.7615E-03     108.299E-03     50.1194E-03              0.    -13.5400E-03
             980               1     525.012E-03     442.275E-03    -85.9771E-03              0.     107.413E-03
             981               1     206.276E-03     182.339E-03     45.4410E-03              0.     71.9331E-03
             982               1         1.16309        -1.14296     35.6447E-03              0.    -38.3371E-03
             983               1         2.06879     485.495E-03    -626.997E-03              0.        -1.05620
             984               1     487.013E-03    -538.743E-03    -408.434E-03              0.    -7.30874E-03
             985               1     936.027E-03     363.911E-03    -689.215E-03              0.     77.2134E-03
             986               1         1.00401     620.820E-03    -285.206E-03              0.     348.437E-03
             987               1         1.03171    -133.376E-03    -616.088E-03              0.     499.750E-03
             988               1     877.979E-03    -548.026E-03    -961.649E-03              0.     155.729E-03
             989               1     90.2254E-03    -37.1938E-03    -61.9165E-03              0.     41.7393E-03
             990               1     117.518E-03     16.1322E-03     98.6752E-03              0.    -42.4475E-03
             991               1         1.44068     726.830E-03    -593.562E-03              0.    -504.496E-03
             992               1         1.21313     535.516E-03    -793.562E-03              0.    -208.335E-03
             993               1         1.39228    -138.932E-03        -1.10558              0.    -532.425E-03
             994               1         1.07872    -690.046E-03    -630.755E-03              0.    -491.553E-03


  Minimum                            21.0743E-03        -8.53330        -11.2345              0.        -4.17318
      At Element                              47             311             319             994              20
          Int Pt                               1               1               1               1               1

  Maximum                                10.3622         5.09511     185.098E-03              0.         4.16282
      At Element                              20             272             813             994             248
          Int Pt                               1               1               1               1               1

           Total                     2.33478E+03         6.30833        -338.241              0.     201.454E-03


********************************************************************************
Field Output Report, written Wed Jun 12 09:30:06 2019

Source 1
---------

   ODB: C:/Users/maduguls/Desktop/sashi/tuss_shell/auto_inp.odb
   Step: Step-1
   Frame: Increment      1: Step Time =   2.2200E-16

Loc 1 : Integration point values from source 1

Output sorted by column "Element Label".

Field Output reported at integration points for part: PART-1-1

   Element Label             Int         S.Mises           S.S11           S.S22           S.S33           S.S12
                              Pt          @Loc 1          @Loc 1          @Loc 1          @Loc 1          @Loc 1
-----------------------------------------------------------------------------------------------------------------
               1               1         1.38490        -1.32923     1.44527E-03              0.    -222.989E-03
               2               1     21.1153E-03     10.3127E-03     10.8026E-03              0.     10.5548E-03
               3               1         3.47712         3.39498    -37.6499E-03              0.    -380.910E-03
               4               1         3.56874        -3.60254    -143.308E-03              0.    -290.608E-03
               5               1         3.31281         3.27902    -61.4979E-03              0.     75.9585E-03
               6               1     128.648E-03    -38.1401E-03    -1.72180E-03              0.     71.0827E-03
               7               1         2.80501         2.77993    -21.3857E-03              0.     163.423E-03
               8               1     820.510E-03    -84.6030E-03    -761.832E-03              0.    -223.714E-03
               9               1         3.12716        -2.59882    -468.042E-03              0.         1.15796
              10               1         4.98045         4.99206     24.2842E-03              0.     40.2299E-03
              11               1     465.227E-03    -30.3756E-03    -68.6294E-03              0.     266.388E-03
              12               1         4.47373        -4.55664    -179.411E-03              0.    -110.480E-03
              13               1     43.8640E-03    -36.2806E-03     11.2634E-03              0.    -4.90804E-03
              14               1         5.06554         5.07985     28.8648E-03              0.     14.9452E-03
              15               1         3.97765        -3.95655     41.7071E-03              0.     14.2867E-03
              16               1     502.752E-03     179.705E-03    -292.972E-03              0.     165.312E-03
              17               1         4.60471        -4.61433    -20.7503E-03              0.    -46.8170E-03
              18               1         3.24077         3.13301    -99.5506E-03              0.     348.830E-03
              19               1         4.16493         4.16420     5.45833E-03              0.    -97.9995E-03
              20               1         10.3622        -8.51714        -5.10832              0.        -4.17318
              21               1     160.821E-03    -16.5182E-03    -134.579E-03              0.    -56.8686E-03
              22               1         3.98676        -3.96501     42.8832E-03              0.     18.9630E-03
              23               1         4.44979        -4.47775    -56.5854E-03              0.    -13.4886E-03
              24               1         4.95423         4.97841     48.8430E-03              0.    -14.1698E-03
              25               1         4.10201        -4.09372     15.2189E-03              0.    -42.3571E-03
              26               1     172.759E-03     157.185E-03     2.53244E-03              0.    -42.9351E-03
              27               1     51.3283E-03     15.5660E-03     12.5342E-03              0.     28.4622E-03
              28               1     50.4296E-03     14.8849E-03    -887.910E-06              0.     27.7343E-03
              29               1     630.472E-03    -29.7402E-03     62.7727E-03              0.     360.926E-03
              30               1         4.99046         5.01649     52.6041E-03              0.    -14.4975E-03
              31               1     44.3478E-03     10.8302E-03     27.1448E-03              0.     21.6531E-03
              32               1     34.9870E-03     29.1826E-03    -2.52675E-03              0.     9.87167E-03
              33               1         4.12474         4.16797     88.3970E-03              0.    -26.2838E-03
              34               1         3.43966         3.41997    -24.0225E-03              0.    -132.124E-03
              35               1         3.96519        -3.94673     35.6532E-03              0.     36.7438E-03
              36               1         4.01998        -4.00661     24.4511E-03              0.     53.9600E-03
              37               1         2.35982        -2.33497     4.02255E-03              0.    -189.080E-03
              38               1     54.3316E-03     15.9849E-03     6.81991E-03              0.    -30.3255E-03
              39               1     676.668E-03    -579.516E-03    -280.911E-06              0.     201.828E-03
              40               1         1.07616        -1.00061    -918.559E-06              0.     229.364E-03
              41               1         4.74183        -4.76342    -43.5926E-03              0.     13.5825E-03
              42               1     25.7935E-03     13.5221E-03     12.2715E-03              0.     12.8816E-03
              43               1         4.92845         4.95308     49.7245E-03              0.    -11.5784E-03
              44               1         3.73598        -3.37483    -752.044E-03              0.         1.23025
              45               1         2.47995        -2.25754    -27.5147E-03              0.     609.659E-03
              46               1     59.9650E-03    -30.4625E-03     26.0543E-03              0.    -19.9610E-03
              47               1     21.0743E-03     10.2590E-03     10.8153E-03              0.    -10.5335E-03
              48               1         3.35527        -3.33875    -9.75507E-03              0.    -218.370E-03
              49               1         1.55566         1.05639    -353.613E-03              0.    -518.180E-03
              50               1     41.8069E-03    -34.0543E-03     10.9613E-03              0.     5.61813E-03
              51               1         5.86610        -5.57452        -3.06652              0.         1.91718
              52               1     51.2656E-03     351.996E-06     46.8646E-03              0.     12.2235E-03
              53               1     164.198E-03     116.018E-03    -51.4359E-03              0.    -40.3638E-03
              54               1         3.98399        -3.96786     30.0051E-03              0.     52.6075E-03
              55               1     26.1480E-03     2.53888E-03     45.8896E-06              0.    -15.0265E-03
              56               1     878.590E-03    -808.814E-03    -21.4087E-03              0.     211.816E-03
              57               1     186.507E-03    -42.2482E-03    -59.1906E-03              0.     103.275E-03
              58               1         3.20108         3.09807    -27.7151E-03              0.    -432.928E-03
              59               1         2.57636         2.40164    -160.470E-03              0.     390.998E-03
              60               1         4.11016        -4.10178     15.6124E-03              0.     38.7982E-03
              61               1         2.81648         2.79136    -21.0020E-03              0.    -165.147E-03
              62               1         4.49793        -4.60402    -759.733E-03              0.    -807.263E-03
              63               1         2.32024        -2.29008     11.3857E-03              0.     193.948E-03
              64               1         3.19473        -3.26289    -145.086E-03              0.     63.7557E-03
              65               1         3.11659        -3.11445    -30.8382E-03              0.    -190.074E-03
              66               1         1.91381        -1.87649     4.81516E-03              0.     210.065E-03
              67               1         2.62222         2.41183    -191.846E-03              0.    -431.904E-03
              68               1     28.0456E-03    -20.5676E-03    -29.5655E-03              0.    -5.70087E-03
              69               1         2.34983        -2.32442     3.96514E-03              0.     191.115E-03
              70               1         4.60171        -4.61330    -24.6473E-03              0.     45.7297E-03
              71               1     60.7276E-03    -30.4153E-03     27.2928E-03              0.     19.8976E-03
              72               1         3.17785        -3.14578     59.7842E-03              0.     60.9930E-03
              73               1         3.33368         3.31305    -39.8664E-03              0.    -33.7243E-03
              74               1         2.08529        -1.80523     421.893E-06              0.     602.444E-03
              75               1         4.13833         4.17860     82.8686E-03              0.    -38.7835E-03
              76               1     343.223E-03    -240.200E-03    -496.247E-06              0.    -141.686E-03
              77               1         4.67887        -4.68798    -19.1521E-03              0.    -37.0435E-03
              78               1         2.22242         1.17908    -108.271E-03              0.        -1.06607
              79               1         1.16689         1.02982    -16.7545E-03              0.    -307.446E-03
              80               1     85.6310E-03     66.6618E-03     11.4594E-03              0.    -34.2610E-03
              81               1         4.16498         4.14081    -47.4780E-03              0.     25.0954E-03
              82               1         3.38600         3.35180    -63.6038E-03              0.    -66.2423E-03
              83               1         4.17249         4.16696    -5.16712E-03              0.     90.3588E-03
              84               1         1.17983         1.22742     102.349E-03              0.     14.1588E-03
              85               1     53.5858E-03     46.7397E-03     13.9448E-03              0.    -19.5291E-03
              86               1     31.1138E-03    -154.214E-06     10.5371E-03              0.     16.8858E-03
              87               1         2.39896         2.39164    -14.4525E-03              0.    -9.42949E-03
              88               1     31.6129E-03    -752.014E-06     9.53465E-03              0.    -17.3275E-03
              89               1         4.77671        -4.79992    -46.9586E-03              0.     17.0563E-03
              90               1         4.17365         4.15091    -44.2662E-03              0.     34.8106E-03
              91               1         2.94743         2.86469    -49.2053E-03              0.    -335.395E-03
              92               1         5.05490         5.07884     48.2167E-03              0.    -2.40676E-03
              93               1         4.92749        -4.59804    -201.309E-03              0.        -1.15805
              94               1         2.50606     311.707E-03        -2.33551              0.    -13.4670E-03
              95               1         4.67618        -4.68458    -17.7299E-03              0.     36.6995E-03
              96               1         4.55255        -4.55707    -37.1718E-03              0.    -205.665E-03
              97               1         4.13463         4.11048    -47.8673E-03              0.     1.67646E-03
              98               1         2.85410         2.84312     11.7411E-03              0.     178.684E-03
              99               1         4.99935         5.02093     43.5615E-03              0.     14.3931E-03
             100               1         3.34571        -3.33770     15.8105E-03              0.    -13.5328E-03
             101               1         2.35995        -2.50206    -363.105E-03              0.    -169.086E-03
             102               1         4.92392         4.95044     53.4579E-03              0.    -1.25382E-03
             103               1         1.35779    -943.297E-03    -56.6128E-03              0.    -578.500E-03
             104               1         4.18623         4.21500     58.2888E-03              0.     14.6954E-03
             105               1         4.94645        -5.16264    -780.728E-03              0.    -641.784E-03
             106               1         4.20194         4.17786    -47.7339E-03              0.     6.80700E-03
             107               1         3.32096         3.27445    -80.1041E-03              0.    -112.658E-03
             108               1         4.19266         4.16933    -46.2641E-03              0.     1.16405E-03
             109               1     213.923E-03    -44.2538E-03    -219.807E-03              0.     41.7003E-03
             110               1         2.33309        -2.30183     13.9936E-03              0.    -193.633E-03
             111               1         2.06325         2.02736    -20.1905E-03              0.    -187.481E-03
             112               1     53.8416E-03     47.2704E-03     13.3516E-03              0.     19.2986E-03
             113               1         3.25468         3.24645     9.53770E-03              0.     167.694E-03
             114               1         2.42502         2.39687    -7.21294E-03              0.     198.624E-03
             115               1     164.563E-03     118.278E-03    -50.2129E-03              0.     39.2885E-03
             116               1         1.16345         1.02536    -17.5823E-03              0.     307.626E-03
             117               1     25.9153E-03     3.21555E-03     215.407E-06              0.     14.8538E-03
             118               1         2.42556        -2.56785    -384.713E-03              0.     207.660E-03
             119               1         4.16801         4.14533    -44.2812E-03              0.    -31.4543E-03
             120               1     43.8651E-03     11.0142E-03     28.1411E-03              0.    -20.9830E-03
             121               1     68.6192E-03    -7.10415E-03     11.5025E-03              0.     38.4886E-03
             122               1         2.30066        -2.27364     47.9973E-03              0.     63.7348E-03
             123               1     78.4055E-03    -12.0847E-03     71.2528E-03              0.     4.59527E-03
             124               1         4.61518        -4.83890        -1.07523              0.     802.453E-03
             125               1     161.748E-03     146.968E-03    -25.7771E-03              0.    -6.05792E-03
             126               1     25.8934E-03     13.5567E-03     12.3367E-03              0.    -12.9323E-03
             127               1         3.42727         3.40734    -24.2628E-03              0.     132.898E-03
             128               1     69.9660E-03     7.44645E-03    -3.72135E-03              0.     39.9926E-03
             129               1     84.6966E-03     66.7701E-03     12.3687E-03              0.     33.6063E-03
             130               1         3.72888        -1.40130        -2.49419              0.         1.75262
             131               1         1.96194         1.87305    -69.2030E-03              0.    -262.350E-03
             132               1         2.44207        -2.22774    -28.3351E-03              0.    -595.318E-03
             133               1         2.86648         2.85516     10.8854E-03              0.    -178.596E-03
             134               1         4.39035        -1.24593        -2.57409              0.         2.18358
             135               1     78.2956E-03     3.64815E-03     3.42949E-03              0.     45.1576E-03
             136               1         2.06868        -1.80724    -16.2786E-03              0.     589.477E-03
             137               1         2.30795        -2.53671    -854.700E-03              0.    -331.332E-03
             138               1         4.97086         4.98410     27.4865E-03              0.    -38.6189E-03
             139               1         4.97766         4.99845     41.9451E-03              0.    -12.5909E-03
             140               1         4.93408         4.95305     38.1695E-03              0.     283.279E-06
             141               1         3.30090         3.25544    -85.5711E-03              0.     63.6811E-03
             142               1         5.07070         5.08739     33.5687E-03              0.     4.66914E-03
             143               1         3.18590         3.08609    -20.8564E-03              0.     432.516E-03
             144               1         2.43709        -2.45030    -26.6729E-03              0.    -5.89174E-03
             145               1         3.95389        -3.93562     35.1759E-03              0.    -38.4752E-03
             146               1         4.27280        -4.27294    -373.780E-06              0.    -11.4993E-03
             147               1         4.11442         4.09259    -43.3170E-03              0.     721.335E-06
             148               1         4.94743         4.96750     40.5065E-03              0.    -13.3611E-03
             149               1         2.44935         2.41980    -20.8822E-03              0.     176.006E-03
             150               1         10.2164        -8.52509        -5.43687              0.        -4.02031
             151               1         2.39228         1.93253    -59.9174E-03              0.     789.293E-03
             152               1         2.72924        -2.70898     4.53564E-03              0.     180.632E-03
             153               1         3.64403         3.63798     8.03551E-03              0.    -156.208E-03
             154               1         4.02426        -3.98324    -31.4316E-03              0.    -388.440E-03
             155               1     78.7447E-03    -46.0682E-03     9.60528E-03              0.     34.3690E-03
             156               1         1.84980     619.032E-03    -344.572E-03              0.     949.830E-03
             157               1         2.43661         2.40781    -8.33008E-03              0.    -199.493E-03
             158               1         4.21381         4.21184    -2.95008E-03              0.     37.5600E-03
             159               1         4.78559        -4.80943    -48.1619E-03              0.    -13.9596E-03
             160               1         3.96174        -3.99382    -65.4857E-03              0.     25.5921E-03
             161               1         3.13095         3.10907    -22.1158E-03              0.     149.720E-03
             162               1         4.72450        -4.73590    -23.1513E-03              0.     20.8483E-03
             163               1         5.02314         5.04216     38.7028E-03              0.    -27.0045E-03
             164               1         4.51847        -4.53404    -32.6017E-03              0.    -44.0711E-03
             165               1         4.29271         4.29108     6.86945E-03              0.    -120.273E-03
             166               1         2.73790        -2.71742     6.10901E-03              0.    -178.006E-03
             167               1         2.82397        -2.80685    -93.4778E-06              0.    -179.543E-03
             168               1         3.68829         3.66779    -29.8729E-03              0.    -115.930E-03
             169               1         4.74339         4.75085     19.2029E-03              0.    -81.6913E-03
             170               1         2.80420        -2.28511        -1.08976              0.         1.14666
             171               1         2.45511         2.42576    -20.8512E-03              0.    -175.329E-03
             172               1         4.14391         4.12301    -41.4390E-03              0.     7.83488E-03
             173               1         4.02090        -4.00743     24.3047E-03              0.    -58.0690E-03
             174               1         2.55894         2.37841    -22.5944E-03              0.     528.245E-03
             175               1         1.73155    -469.318E-03        -1.34270              0.    -731.513E-03
             176               1         3.97881        -3.96307     29.3818E-03              0.    -50.8889E-03
             177               1         3.70228         3.64779    -24.7145E-03              0.     321.328E-03
             178               1         2.48873        -2.55509    -147.044E-03              0.     80.4458E-03
             179               1         4.93665         4.96316     53.4570E-03              0.     1.10150E-03
             180               1     411.022E-03    -96.1089E-03    -347.945E-03              0.     155.002E-03
             181               1         4.84623        -4.86387    -35.4761E-03              0.    -1.52951E-03
             182               1         5.04830         5.07019     44.0711E-03              0.     727.210E-06
             183               1         3.47690        -3.52780    -210.582E-03              0.    -337.622E-03
             184               1         4.20862         4.18809    -40.5002E-03              0.     19.8124E-03
             185               1         4.21921         4.19877    -40.5952E-03              0.    -3.34119E-03
             186               1         4.26106         4.23890    -43.9314E-03              0.    -6.54990E-03
             187               1         4.45804        -4.48559    -55.6965E-03              0.     10.6964E-03
             188               1         4.09432         4.07254    -43.0329E-03              0.    -15.8268E-03
             189               1         2.58205        -2.53297        -2.58731              0.     191.859E-03
             190               1         4.51775        -4.53376    -33.3272E-03              0.     40.8625E-03
             191               1         3.96585        -3.94556     40.1230E-03              0.     14.3928E-03
             192               1         4.72856        -4.74121    -25.7637E-03              0.    -23.7123E-03
             193               1         1.50715    -582.587E-03    -203.653E-03              0.    -818.388E-03
             194               1         2.53229         2.39501    -156.915E-03              0.    -303.309E-03
             195               1         4.28912        -4.09453    -903.638E-03              0.         1.22676
             196               1         2.94518         2.85955    -50.6992E-03              0.     341.333E-03
             197               1         4.73387         4.74190     20.7251E-03              0.     85.1142E-03
             198               1         3.42773         3.38922    -72.2156E-03              0.    -64.6437E-03
             199               1         3.69323        -3.12153        -1.08835              0.        -1.42698
             200               1         1.87010        -1.82703     12.7184E-03              0.     212.794E-03
             201               1         2.05309         2.01707    -20.2984E-03              0.     187.306E-03
             202               1         1.55437         1.05068    -356.634E-03              0.     519.698E-03
             203               1     52.5662E-03     11.6890E-03     11.5186E-03              0.     29.6003E-03
             204               1         2.20191     534.793E-03    -610.576E-03              0.         1.13476
             205               1     44.5359E-03    -504.515E-06     38.0272E-03              0.     13.1395E-03
             206               1         2.81699        -2.79904     7.11999E-06              0.     183.333E-03
             207               1     320.116E-03     16.8868E-03    -309.404E-03              0.     20.2784E-03
             208               1     33.3234E-03    -12.7919E-03     19.5531E-03              0.     10.2367E-03
             209               1     169.727E-03     155.850E-03     3.61818E-03              0.     41.1057E-03
             210               1         3.74655        -1.40618        -2.50744              0.        -1.76049
             211               1         3.11541        -3.11203    -29.2503E-03              0.     192.588E-03
             212               1     490.805E-03     119.324E-03    -221.889E-03              0.     224.306E-03
             213               1     49.7410E-03    -4.38706E-03     38.0048E-03              0.    -16.7713E-03
             214               1     51.1426E-03     29.0436E-03    -2.02729E-03              0.    -23.8680E-03
             215               1     109.147E-03     101.634E-03     18.9426E-06              0.    -22.9899E-03
             216               1     51.8328E-03     12.9117E-03    -1.92222E-03              0.    -28.8179E-03
             217               1     40.9927E-03    -162.153E-06     34.2387E-03              0.    -12.9426E-03
             218               1     73.9132E-03    -9.42804E-03     67.5018E-03              0.    -7.77520E-03
             219               1     44.8246E-03    -265.922E-06     44.5697E-03              0.    -1.90314E-03
             220               1         4.22750        -4.38236    -406.559E-03              0.    -307.162E-03
             221               1         4.50021        -4.60518    -753.626E-03              0.     805.578E-03
             222               1         4.08826         4.06696    -42.1021E-03              0.     15.7261E-03
             223               1     284.590E-03     257.690E-03    -44.1907E-03              0.     20.3900E-03
             224               1         5.97311    -65.8527E-03        -6.00122              0.     134.484E-03
             225               1         3.62602         3.62055     8.86790E-03              0.     154.566E-03
             226               1         4.29228        -4.10029    -906.490E-03              0.        -1.22562
             227               1     505.791E-03     181.537E-03    -294.002E-03              0.    -166.393E-03
             228               1     632.059E-03    -30.3349E-03     63.2356E-03              0.    -361.783E-03
             229               1     57.8239E-03    -10.2730E-03     5.48100E-03              0.    -32.4125E-03
             230               1     445.187E-03    -359.024E-03    -52.4297E-03              0.     168.689E-03
             231               1     336.967E-03    -233.816E-03    -924.173E-06              0.     140.348E-03
             232               1         2.18930         2.00800    -27.1184E-03              0.     485.047E-03
             233               1         1.35153     508.354E-03    -29.7416E-03              0.     719.304E-03
             234               1         3.31224         3.27298    -72.7950E-03              0.     70.6105E-03
             235               1         1.95358         1.86461    -69.7070E-03              0.     261.323E-03
             236               1         1.61205         1.56014    -17.7977E-03              0.     213.373E-03
             237               1         1.49630        -1.44240     1.89547E-03              0.     227.780E-03
             238               1         1.37608        -1.31938     2.17244E-03              0.     223.592E-03
             239               1     252.011E-03    -106.471E-03    -239.841E-03              0.     82.0280E-03
             240               1         4.02198        -3.98063    -32.2167E-03              0.     390.795E-03
             241               1         3.56948        -3.60311    -143.885E-03              0.     292.412E-03
             242               1     57.0993E-03     15.8314E-03    -42.2378E-03              0.    -13.6258E-03
             243               1         2.41867        -2.51754        -2.30315              0.     43.7679E-03
             244               1     372.599E-03    -107.266E-03    -210.129E-03              0.    -187.714E-03
             245               1         4.85998        -4.69290    -259.292E-03              0.    -956.688E-03
             246               1         3.35214        -3.33537    -9.95486E-03              0.     220.078E-03
             247               1         3.96792         3.96402     6.86129E-03              0.     139.145E-03
             248               1         10.3413        -8.50158        -5.11502              0.         4.16282
             249               1         2.18189        -1.53861    -86.5994E-03              0.     916.347E-03
             250               1         4.27036         4.26963     8.91503E-03              0.     121.469E-03
             251               1         3.67541         3.65455    -30.1069E-03              0.     118.370E-03
             252               1         4.92203        -4.59637    -202.291E-03              0.         1.15306
             253               1         9.71029        -4.96411        -11.1815              0.     206.802E-03
             254               1         4.52411         4.52940     17.7645E-03              0.     103.764E-03
             255               1         3.86755         3.84419    -37.3709E-03              0.     108.137E-03
             256               1         3.99909         3.97454    -43.0659E-03              0.     86.9488E-03
             257               1         4.88018         4.88950     21.1274E-03              0.     62.5961E-03
             258               1         4.10318         4.07947    -44.5420E-03              0.     58.4862E-03
             259               1         4.19171         4.16873    -45.5682E-03              0.    -4.23786E-03
             260               1         4.96433         4.99043     52.7028E-03              0.     11.2862E-03
             261               1         2.16058     721.954E-03    -287.552E-03              0.         1.13381
             262               1         1.93435         1.68863    -14.0499E-03              0.     537.373E-03
             263               1         4.26545         4.24317    -44.1948E-03              0.     5.59335E-03
             264               1         5.02958         5.04654     34.4762E-03              0.     24.9822E-03
             265               1         3.70228        -3.85458        -2.09592              0.     919.265E-03
             266               1         2.87926        -2.67945    -87.7461E-03              0.    -667.862E-03
             267               1         4.15685         4.13486    -43.6082E-03              0.     6.54620E-03
             268               1         4.20229         4.17826    -47.2515E-03              0.     23.7875E-03
             269               1         4.24784         4.27307     51.0722E-03              0.     15.3163E-03
             270               1         3.11726        -3.08205     68.4531E-03              0.     29.4569E-03
             271               1         4.82432        -4.83746    -26.4476E-03              0.     10.4761E-03
             272               1         5.07843         5.09511     33.5345E-03              0.    -4.60092E-03
             273               1         4.02034        -3.99922     41.8854E-03              0.     6.67041E-03
             274               1         1.92643         1.42415    -123.435E-03              0.     705.196E-03
             275               1         4.23219         4.21074    -42.5683E-03              0.     3.14321E-03
             276               1         4.76153        -4.77946    -36.1762E-03              0.    -13.8404E-03
             277               1         5.02158         5.03777     32.5729E-03              0.    -7.77137E-03
             278               1         4.16249         4.13714    -50.1273E-03              0.    -13.1144E-03
             279               1         3.15843        -3.12983     56.2620E-03              0.     13.5517E-03
             280               1         2.19396     186.265E-03    -721.962E-03              0.        -1.17233
             281               1         3.98729        -3.96657     40.9916E-03              0.    -13.3139E-03
             282               1         4.82833        -4.84275    -29.0442E-03              0.    -11.1148E-03
             283               1         2.86869        -2.66375    -85.9452E-03              0.     672.152E-03
             284               1         1.84559     618.583E-03    -342.244E-03              0.    -947.757E-03
             285               1         3.96937        -3.94830     41.7714E-03              0.    -7.76468E-03
             286               1         5.03453         5.04972     30.5188E-03              0.     3.01737E-03
             287               1         5.06756         5.08096     27.0813E-03              0.    -17.3763E-03
             288               1     35.3271E-03     29.2586E-03    -2.20174E-03              0.    -10.3710E-03
             289               1     161.821E-03     146.612E-03    -26.4759E-03              0.     6.01286E-03
             290               1         2.44277         2.44520     27.4280E-03              0.     134.750E-03
             291               1         4.84038        -4.86039    -40.2677E-03              0.     919.701E-06
             292               1         4.01428        -3.99255     43.0969E-03              0.    -4.85813E-03
             293               1         1.34792     511.247E-03    -28.0404E-03              0.    -716.562E-03
             294               1         4.06532        -4.04439     41.5445E-03              0.     4.21506E-03
             295               1         3.95765        -3.93732     40.1070E-03              0.    -18.0391E-03
             296               1         1.71209        -1.35663    -4.63274E-03              0.     604.722E-03
             297               1         3.13643        -2.29641        -3.51826              0.    -297.143E-03
             298               1         2.58947         2.40594    -229.766E-03              0.     322.070E-03
             299               1         4.55215        -4.55713    -37.3837E-03              0.     203.006E-03
             300               1         4.20317         4.18080    -44.3465E-03              0.    -7.36876E-03
             301               1         2.71184         2.60374    -39.2800E-03              0.     396.134E-03
             302               1         2.46393         2.32558    -31.1301E-03              0.    -443.204E-03
             303               1         4.27377        -4.27416    -841.406E-06              0.     9.46677E-03
             304               1     111.009E-03     102.792E-03    -994.244E-06              0.     23.4790E-03
             305               1         4.37235        -1.23398        -2.56386              0.        -2.17448
             306               1         4.46176        -4.54411    -177.814E-03              0.     107.633E-03
             307               1         1.61724         1.56495    -17.4676E-03              0.    -215.053E-03
             308               1         4.92713        -5.14556    -788.494E-03              0.     641.723E-03
             309               1         3.43393        -3.45057    -45.6188E-03              0.     116.617E-03
             310               1         4.20476         4.18370    -41.4655E-03              0.    -22.1655E-03
             311               1         10.2481        -8.53330        -5.47047              0.         4.03983
             312               1     248.718E-03    -105.685E-03    -238.618E-03              0.    -79.5218E-03
             313               1         2.09429        -1.81503     2.86608E-03              0.    -601.811E-03
             314               1         3.48215        -3.72665    -973.109E-03              0.    -552.857E-03
             315               1     50.9066E-03     30.1878E-03    -1.69538E-03              0.     23.2818E-03
             316               1     158.239E-03    -15.4499E-03    -133.371E-03              0.     54.9961E-03
             317               1         3.39649         3.36034    -66.1240E-03              0.     76.7593E-03
             318               1         4.84959        -4.67463    -255.310E-03              0.     965.169E-03
             319               1         9.75600        -4.98849        -11.2345              0.    -203.356E-03
             320               1         4.09880         4.07519    -44.7384E-03              0.    -53.7687E-03
             321               1         4.87931         4.88923     22.0580E-03              0.    -59.1516E-03
             322               1         4.00603         3.98198    -42.7266E-03              0.    -82.0329E-03
             323               1         3.88117         3.85809    -37.3316E-03              0.    -105.249E-03
             324               1         4.54064         4.54582     17.2070E-03              0.    -101.367E-03
             325               1     38.2287E-03    -10.8297E-03     17.1255E-03              0.    -16.9843E-03
             326               1     49.6608E-03    -13.5942E-03     30.4914E-03              0.    -17.6745E-03
             327               1         1.50560        -1.45217     1.85431E-03              0.    -227.567E-03
             328               1         1.87964        -1.83713     11.6998E-03              0.    -213.195E-03
             329               1         3.98861         3.98388     5.25245E-03              0.    -139.703E-03
             330               1         3.14385         3.12192    -21.8520E-03              0.    -151.360E-03
             331               1     54.1048E-03     14.2086E-03     10.5265E-03              0.    -30.3546E-03
             332               1         3.37741         3.35634    -41.5514E-03              0.     15.4498E-03
             333               1     189.997E-03    -48.6601E-03    -59.3232E-03              0.    -105.037E-03
             334               1     132.006E-03    -39.8705E-03    -1.38044E-03              0.    -72.7762E-03
             335               1     889.174E-03    -820.363E-03    -20.2423E-03              0.    -211.212E-03
             336               1         1.08748        -1.01383    -1.13985E-03              0.    -227.974E-03
             337               1         1.92486        -1.88744     4.73775E-03              0.    -211.082E-03
             338               1         3.26515         3.25790     11.5969E-03              0.    -168.245E-03
             339               1     55.1751E-03     17.1292E-03     5.53943E-03              0.     30.6327E-03
             340               1         2.88283         2.75211    -18.3822E-03              0.     478.079E-03
             341               1     36.2288E-03    -23.9896E-03    -28.9082E-03              0.     14.0811E-03
             342               1         2.22478         1.95013    -44.0449E-03              0.    -594.088E-03
             343               1     284.694E-03     256.856E-03    -45.1382E-03              0.    -21.9403E-03
             344               1     76.7125E-03     6.72129E-03     3.77139E-03              0.    -44.1617E-03
             345               1         5.95046    -65.1606E-03        -5.97808              0.    -136.442E-03
             346               1         3.96829        -3.99327    -50.8999E-03              0.     24.6110E-03
             347               1         2.48895        -2.26664    -21.1643E-03              0.    -606.828E-03
             348               1     671.617E-03    -290.950E-03    -222.391E-03              0.    -356.681E-03
             349               1     454.749E-03    -369.878E-03    -51.1954E-03              0.    -169.610E-03
             350               1     686.756E-03    -591.346E-03    -109.318E-06              0.    -201.666E-03
             351               1     49.4771E-03    -3.92431E-03     38.0316E-03              0.     16.7027E-03
             352               1     52.5790E-03    -40.1677E-03     6.91753E-03              0.    -16.5871E-03
             353               1         4.20313         4.20426     3.93593E-03              0.     48.4291E-03
             354               1     67.1260E-03     10.8468E-03    -1.91680E-03              0.    -38.1392E-03
             355               1     50.2679E-03     1.45442E-03     46.2350E-03              0.    -12.3061E-03
             356               1     51.0541E-03     18.2045E-03     13.7235E-03              0.    -27.9083E-03
             357               1     44.5289E-03    -1.32643E-03     36.4704E-03              0.    -14.1727E-03
             358               1     77.5528E-03    -11.8878E-03     70.5686E-03              0.    -4.25416E-03
             359               1     44.1130E-03    -624.821E-06     43.6652E-03              0.     1.96958E-03
             360               1     73.4375E-03    -9.49691E-03     67.0334E-03              0.     7.58906E-03
             361               1     40.9588E-03    -868.119E-06     32.8026E-03              0.     13.8128E-03
             362               1         3.12118        -3.11836     3.22017E-03              0.    -50.1481E-03
             363               1         3.17873         3.17692    -3.54189E-03              0.     8.76765E-03
             364               1         2.71797         2.61226    -38.5805E-03              0.    -392.078E-03
             365               1         1.74596        -1.41610    -22.7139E-03              0.     598.528E-03
             366               1         3.40974        -3.52429    -890.426E-03              0.    -719.019E-03
             367               1     48.8415E-03    -13.3820E-03     29.2001E-03              0.     17.9166E-03
             368               1     58.5334E-03    -10.5747E-03     5.11932E-03              0.     32.8329E-03
             369               1     58.5114E-03    -35.0897E-03     32.3773E-03              0.    -1.62221E-03
             370               1         3.46619         3.38514    -34.7766E-03              0.     381.407E-03
             371               1     409.058E-03    -137.578E-03    -332.753E-03              0.     166.789E-03
             372               1         2.01791         1.55395    -68.0265E-03              0.     718.066E-03
             373               1         2.60074         2.25112    -65.8516E-03              0.     717.340E-03
             374               1         3.17080         3.16036     1.24412E-03              0.    -152.781E-03
             375               1         1.72260    -467.015E-03        -1.33237              0.     729.445E-03
             376               1     464.248E-03     78.6486E-03    -268.965E-03              0.     196.507E-03
             377               1         2.21407         1.94244    -36.4018E-03              0.     593.579E-03
             378               1     664.140E-03    -285.316E-03    -224.855E-03              0.     352.738E-03
             379               1         4.05898        -4.15276    -202.181E-03              0.     97.7712E-03
             380               1         3.26613         3.15169    -117.780E-03              0.    -341.268E-03
             381               1         3.24821        -3.22313     46.7261E-03              0.    -56.2783E-03
             382               1         2.29939     175.726E-03    -271.697E-03              0.        -1.30828
             383               1         3.95528        -3.96814    -26.5673E-03              0.     30.5265E-03
             384               1         1.71769        -1.36819    -9.72984E-03              0.    -603.248E-03
             385               1         4.09828        -3.27004        -4.56168              0.     265.002E-03
             386               1     37.7744E-03    -24.5479E-03    -28.9614E-03              0.    -15.2369E-03
             387               1     366.551E-03    -104.976E-03    -207.222E-03              0.     184.528E-03
             388               1         2.92868        -2.75553    -116.265E-03              0.    -656.027E-03
             389               1         2.24903        -2.22044     46.7445E-03              0.     85.3243E-03
             390               1         3.02095         2.80378    -119.851E-03              0.    -552.129E-03
             391               1         3.13816        -2.29392        -3.52410              0.     289.085E-03
             392               1         3.45843         3.42758    -59.8689E-03              0.     34.6861E-03
             393               1     64.9710E-03    -22.8056E-03    -2.06478E-03              0.    -35.3269E-03
             394               1         3.45200         3.42275    -56.0829E-03              0.    -44.7928E-03
             395               1         3.99333        -4.04683    -109.316E-03              0.    -10.1538E-03
             396               1         1.45445        -1.03572    -46.7837E-03              0.     602.492E-03
             397               1         3.30507         3.25507    -93.4851E-03              0.     70.5127E-03
             398               1         2.92658        -2.74883    -115.021E-03              0.     661.259E-03
             399               1         2.43888        -2.22006    -30.5024E-03              0.     601.742E-03
             400               1         4.19355         4.19513     3.28295E-03              0.     13.4436E-03
             401               1     349.553E-03    -158.467E-06    -349.178E-03              0.    -10.2830E-03
             402               1         4.12547         4.12926     8.86426E-03              0.    -41.9433E-03
             403               1         2.42709     328.510E-03        -1.36444              0.         1.07593
             404               1         4.19766         4.20510     17.5904E-03              0.    -60.8128E-03
             405               1         1.33044    -199.392E-03    -210.365E-03              0.     758.950E-03
             406               1         4.14974         4.16751     36.2853E-03              0.    -26.4406E-03
             407               1         4.24972         4.28263     66.6688E-03              0.    -9.71372E-03
             408               1         3.37702         3.34851    -55.7795E-03              0.    -24.8258E-03
             409               1         4.22874         4.21725    -21.6951E-03              0.    -41.2541E-03
             410               1         1.92406     775.358E-03    -360.636E-03              0.    -947.125E-03
             411               1         1.68954         1.33073    -10.7284E-03              0.     597.029E-03
             412               1     70.8816E-03    -8.43186E-03     11.0307E-03              0.    -39.7426E-03
             413               1         3.73786        -3.37891    -754.975E-03              0.        -1.22957
             414               1         3.90098         3.86179    -28.3275E-03              0.    -254.303E-03
             415               1         3.95413        -3.97431    -41.3538E-03              0.     29.7537E-03
             416               1         6.15259        -5.36840        -2.75502              0.         2.32627
             417               1         4.76734        -3.47088        -4.78105              0.         1.21334
             418               1         3.37471        -3.48678    -903.905E-03              0.     722.429E-03
             419               1     64.4920E-03    -21.3721E-03    -2.82217E-03              0.     35.3780E-03
             420               1     77.4279E-03    -44.9620E-03     8.65105E-03              0.    -34.2038E-03
             421               1         4.01308        -4.00975     6.27956E-03              0.    -22.5155E-03
             422               1         2.19785         2.01804    -23.1677E-03              0.    -486.742E-03
             423               1         2.56462         2.38735    -17.0620E-03              0.    -528.143E-03
             424               1     819.349E-03    -287.287E-03    -79.6158E-03              0.     449.197E-03
             425               1         3.33114         3.31490    -31.7765E-03              0.    -22.8336E-03
             426               1         2.50970         1.98105    -233.659E-03              0.    -786.668E-03
             427               1         4.10693         4.10971     6.35544E-03              0.    -32.6459E-03
             428               1         4.00568        -4.00803    -4.86744E-03              0.     13.9044E-03
             429               1         3.25423        -3.22273     59.7508E-03              0.    -51.2500E-03
             430               1         3.96432        -3.98726    -46.7223E-03              0.    -23.7059E-03
             431               1         3.15994        -3.13166     55.0236E-03              0.     29.3718E-03
             432               1         2.66625        -2.11322    -426.116E-03              0.        -1.05863
             433               1         2.45486        -1.87127    -188.696E-03              0.    -973.343E-03
             434               1         3.48120        -3.33798    -342.832E-03              0.    -817.199E-03
             435               1         3.33439        -3.09568    -243.328E-03              0.    -861.981E-03
             436               1         4.01357         3.98912    -18.7828E-03              0.     200.304E-03
             437               1         2.47196         2.39668    -116.164E-03              0.    -157.708E-03
             438               1         4.61550        -4.83248        -1.03113              0.    -789.450E-03
             439               1         2.67378        -2.10719    -421.511E-03              0.         1.06761
             440               1         1.46077        -1.05108    -48.3062E-03              0.    -599.308E-03
             441               1         2.34431     368.395E-03    -363.537E-03              0.        -1.30307
             442               1         3.14194        -3.16580    -49.0996E-03              0.     28.9218E-03
             443               1     408.877E-03    -137.761E-03    -333.968E-03              0.    -166.008E-03
             444               1     464.363E-03     78.1171E-03    -269.089E-03              0.    -196.724E-03
             445               1     827.388E-03    -297.976E-03    -78.2762E-03              0.    -452.024E-03
             446               1     55.1051E-03    -46.0431E-03    -35.5868E-03              0.     20.7261E-03
             447               1     473.419E-03    -30.8815E-03    -68.3273E-03              0.    -271.178E-03
             448               1         1.00112    -566.051E-03    -142.002E-03              0.     497.337E-03
             449               1         3.15096         3.07747    -61.4884E-03              0.    -297.023E-03
             450               1         3.71666         3.66009    -29.0799E-03              0.    -321.481E-03
             451               1         4.19113         4.19473     7.36482E-03              0.    -14.5805E-03
             452               1         3.31239         3.27902    -65.3908E-03              0.    -20.2798E-03
             453               1     954.519E-03     293.833E-03    -662.962E-03              0.    -251.959E-03
             454               1         3.94191        -3.96177    -40.7867E-03              0.    -31.6377E-03
             455               1         4.07782         4.09961     44.6291E-03              0.     30.5537E-03
             456               1         3.15598        -3.12469     58.5718E-03              0.    -57.8205E-03
             457               1         3.36546         3.33526    -57.2911E-03              0.    -51.7783E-03
             458               1         1.81119    -944.612E-03    -90.1209E-03              0.    -906.485E-03
             459               1         1.93587         1.43255    -124.573E-03              0.    -707.438E-03
             460               1         1.60098     969.075E-03    -52.9952E-03              0.    -723.385E-03
             461               1         2.97084    -72.6548E-03        -1.25461              0.        -1.56394
             462               1     32.6057E-03    -13.1255E-03     17.7657E-03              0.    -10.6778E-03
             463               1     50.3410E-03    -46.8097E-03    -53.1845E-03              0.    -1.15860E-03
             464               1         1.93412         1.69252    -14.7759E-03              0.    -532.603E-03
             465               1         2.07396        -1.66095        -2.16148              0.    -391.871E-03
             466               1         1.23277         1.20064     16.6474E-03              0.     180.649E-03
             467               1         2.89207         2.76121    -17.1582E-03              0.    -480.313E-03
             468               1         6.17583        -5.38479        -2.77406              0.        -2.33718
             469               1         4.80022        -3.48296        -4.78368              0.        -1.25019
             470               1         3.25392        -3.23017     43.9498E-03              0.     58.1470E-03
             471               1         3.95345        -3.98481    -64.2893E-03              0.    -31.8271E-03
             472               1         3.44410         3.40033    -81.4899E-03              0.     72.7827E-03
             473               1         3.99420        -4.03998    -93.2293E-03              0.     7.31295E-03
             474               1         3.09287        -3.06012     64.4391E-03              0.    -8.28553E-03
             475               1         2.82647         2.54620    -109.454E-03              0.    -636.437E-03
             476               1     973.526E-03     34.9459E-03    -269.753E-03              0.     536.761E-03
             477               1         3.88578         3.85033    -19.3283E-03              0.     257.856E-03
             478               1         2.21469        -2.28661    -168.930E-03              0.    -106.477E-03
             479               1     51.7050E-03    -52.8608E-03    -48.3719E-03              0.    -5.66492E-03
             480               1         3.47952        -3.33155    -341.658E-03              0.     822.461E-03
             481               1         3.64066        -3.82373        -1.85007              0.    -872.717E-03
             482               1         3.20225         3.12641    -84.7611E-03              0.     263.168E-03
             483               1         2.46457         2.46735     5.56664E-03              0.    -1.72821E-03
             484               1         5.80468        -5.55040        -2.91967              0.        -1.87689
             485               1         4.10718        -3.27718        -4.56727              0.    -281.009E-03
             486               1         2.39808         1.94046    -54.6028E-03              0.    -790.883E-03
             487               1         2.48186         2.42728    -90.9991E-03              0.    -113.671E-03
             488               1         3.31278     416.181E-03        -2.67295              0.     920.907E-03
             489               1         2.97637    -78.1695E-03        -1.25967              0.         1.56678
             490               1         1.14542    -639.862E-03    -66.6281E-03              0.     559.989E-03
             491               1         1.35224    -933.136E-03    -58.5198E-03              0.     579.942E-03
             492               1         2.45176         2.31430    -31.9722E-03              0.     439.747E-03
             493               1         4.10898         4.08896    -24.4988E-03              0.     145.263E-03
             494               1         3.33328         3.28080    -88.2921E-03              0.     128.583E-03
             495               1     53.8212E-03    -54.4008E-03    -49.8681E-03              0.     7.37828E-03
             496               1         3.13332        -2.61020    -468.822E-03              0.        -1.15592
             497               1         2.75658         1.39250        -1.71433              0.     333.440E-03
             498               1     59.2307E-03    -14.7830E-03    -65.0993E-03              0.    -2.17454E-03
             499               1     54.3693E-03    -47.2945E-03    -33.9180E-03              0.    -19.7734E-03
             500               1     182.486E-03     4.86958E-03    -54.5615E-03              0.     100.058E-03
             501               1         3.27017         3.20543    -89.7700E-03              0.     202.868E-03
             502               1         4.27961        -3.42504        -2.40133              0.         1.73613
             503               1         3.02027         2.79841    -134.313E-03              0.     546.810E-03
             504               1         2.33057         2.30148    -53.7909E-03              0.    -51.8695E-03
             505               1         3.34062        -3.10015    -245.625E-03              0.     866.022E-03
             506               1         3.12718         3.05007    -64.0666E-03              0.     303.745E-03
             507               1         1.92502     773.453E-03    -367.712E-03              0.     946.548E-03
             508               1         1.59679     969.811E-03    -54.7321E-03              0.     719.517E-03
             509               1         3.43816        -3.45119    -37.4468E-03              0.    -112.584E-03
             510               1         4.06827        -4.15383    -185.050E-03              0.    -101.555E-03
             511               1         2.08577         1.16686    -104.732E-03              0.     975.655E-03
             512               1         2.19871         1.85305    -77.3294E-03              0.    -645.827E-03
             513               1         2.37860     951.363E-03        -1.07058              0.     928.797E-03
             514               1         2.62874         2.20183    -254.452E-03              0.    -692.144E-03
             515               1     53.7921E-03    -42.0350E-03     5.00350E-03              0.     17.2366E-03
             516               1         3.34899        -3.34134     15.2270E-03              0.    -4.13230E-03
             517               1         2.81886         2.54434    -90.8652E-03              0.     641.056E-03
             518               1         2.18839        -1.12304    -245.471E-03              0.         1.11703
             519               1         2.69342        -2.13151    -211.153E-03              0.        -1.01926
             520               1         2.46672        -2.59956    -361.329E-03              0.    -212.715E-03
             521               1         4.17502         4.21004     71.9534E-03              0.    -37.0054E-03
             522               1         3.28734        -3.41096    -287.042E-03              0.    -151.283E-03
             523               1         4.17494         4.19770     46.7553E-03              0.     34.1505E-03
             524               1         3.94631        -3.96429    -37.0646E-03              0.    -33.2355E-03
             525               1         3.31108         3.28136    -52.8349E-03              0.     81.1662E-03
             526               1         4.07574         4.09160     32.1780E-03              0.    -18.7483E-03
             527               1         4.04963        -4.08150    -64.5175E-03              0.    -2.75865E-03
             528               1         3.25317        -3.21449     71.1215E-03              0.     74.0858E-03
             529               1         3.11610        -3.08308     64.9512E-03              0.     8.74992E-03
             530               1         3.97361        -3.99573    -44.8492E-03              0.     17.7854E-03
             531               1         3.69776        -3.11635        -1.07111              0.         1.43206
             532               1         3.18058         3.17556    -9.96060E-03              0.    -8.43134E-03
             533               1     180.397E-03     179.081E-03     29.7503E-03              0.    -40.4784E-03
             534               1         2.11713    -670.732E-03    -108.123E-03              0.        -1.16807
             535               1         2.50028     354.748E-03    -646.433E-03              0.        -1.35134
             536               1         3.14053        -3.11387     52.6104E-03              0.    -8.21468E-03
             537               1         3.38385         3.35665    -49.9518E-03              0.    -66.1599E-03
             538               1         3.97315        -3.99934    -53.4576E-03              0.    -26.5194E-03
             539               1         3.13473        -3.10433     59.9295E-03              0.     3.44561E-03
             540               1         3.35285         3.31852    -65.0093E-03              0.     54.9700E-03
             541               1         2.21745        -2.18549     62.3684E-03              0.     13.1985E-03
             542               1         2.25721        -2.50194    -859.395E-03              0.     286.857E-03
             543               1         2.98400        -2.35923        -2.99900              0.    -687.897E-03
             544               1         2.61158         2.26064    -71.4509E-03              0.    -717.222E-03
             545               1         3.38402         3.34569    -65.2405E-03              0.     108.566E-03
             546               1         2.27248         2.27561     33.3721E-03              0.     142.122E-03
             547               1         3.46416         3.43875    -50.1275E-03              0.     13.7389E-03
             548               1         3.09291        -3.05883     65.4336E-03              0.    -41.7387E-03
             549               1         3.20768         3.05893    -107.685E-03              0.    -443.900E-03
             550               1         3.47498        -3.53011    -215.092E-03              0.     330.072E-03
             551               1         4.15433         4.16399     19.4522E-03              0.     9.14592E-03
             552               1         3.30695         3.28375    -44.6772E-03              0.     37.4339E-03
             553               1         4.22479        -4.37832    -406.149E-03              0.     312.222E-03
             554               1         2.58475         2.50757    -142.893E-03              0.    -68.9562E-03
             555               1         3.28985         3.33442     91.1937E-03              0.    -12.9373E-03
             556               1         1.35141        -1.28507    -999.135E-03              0.     391.824E-03
             557               1         2.36002         2.12337    -88.0086E-03              0.    -537.393E-03
             558               1         2.34579        -1.69765    -83.3986E-03              0.     958.355E-03
             559               1     185.874E-03     5.24504E-03    -55.2899E-03              0.    -101.939E-03
             560               1         4.02082         3.99421    -25.3335E-03              0.    -192.758E-03
             561               1         3.22196         3.14934    -84.1844E-03              0.    -251.953E-03
             562               1         4.10338         4.08740    -17.0570E-03              0.    -142.416E-03
             563               1         3.27193         3.21367    -83.4408E-03              0.    -185.097E-03
             564               1         1.28230     187.138E-03        -1.15504              0.     140.241E-03
             565               1     215.892E-03    -43.6725E-03    -221.666E-03              0.    -41.8214E-03
             566               1         3.38677         3.37551    -4.68057E-03              0.    -141.780E-03
             567               1     59.8567E-03    -14.4106E-03    -65.5552E-03              0.     2.73046E-03
             568               1         2.11578        -2.17320    -122.455E-03              0.     40.2285E-03
             569               1         1.00895    -575.141E-03    -135.824E-03              0.    -498.951E-03
             570               1         1.15123    -657.378E-03    -66.0156E-03              0.    -557.443E-03
             571               1     58.1150E-03    -52.7436E-03     7.43302E-03              0.     7.02776E-03
             572               1         3.29365     412.241E-03        -2.65807              0.    -915.988E-03
             573               1         2.03105     522.790E-03    -358.772E-03              0.         1.08560
             574               1         1.69900         1.33760    -11.9897E-03              0.    -600.347E-03
             575               1         2.07353        -1.81171    -12.8659E-03              0.    -588.893E-03
             576               1         1.75707        -1.42839    -24.0105E-03              0.    -600.195E-03
             577               1     786.681E-03    -160.944E-03    -501.777E-03              0.     375.030E-03
             578               1         3.35056         3.26976    -124.115E-03              0.     194.679E-03
             579               1         2.74559         1.38970        -1.70381              0.    -334.798E-03
             580               1         2.49978     308.590E-03        -2.33104              0.     14.4931E-03
             581               1     59.2444E-03    -37.4731E-03     30.7585E-03              0.     1.52366E-03
             582               1     38.0675E-03    -10.6317E-03     15.9402E-03              0.     17.4407E-03
             583               1     56.4264E-03     16.4244E-03    -42.0601E-03              0.     12.3059E-03
             584               1     27.6468E-03    -19.5914E-03    -29.8692E-03              0.     4.95090E-03
             585               1         1.34812     7.25771E-03    -698.794E-03              0.     664.327E-03
             586               1     122.633E-03    -52.9575E-03    -128.029E-03              0.    -29.5703E-03
             587               1         3.37029         3.32932    -73.8967E-03              0.     87.5875E-03
             588               1         3.11814        -3.16260    -91.2567E-03              0.     18.4178E-03
             589               1     494.848E-03     120.109E-03    -223.879E-03              0.    -226.154E-03
             590               1         2.40076         1.72289    -189.873E-03              0.     900.396E-03
             591               1     733.683E-03    -24.5970E-03    -641.610E-03              0.    -217.412E-03
             592               1         1.79323    -904.046E-03    -84.0953E-03              0.     906.887E-03
             593               1         2.34604        -1.70689    -87.3797E-03              0.    -954.283E-03
             594               1         1.83216     754.003E-03    -112.323E-03              0.     947.097E-03
             595               1         1.70613         1.54176    -206.666E-03              0.     239.781E-03
             596               1         2.53239        -1.31699        -1.29584              0.         1.25246
             597               1         2.20165        -2.21343    -23.7683E-03              0.    -3.86556E-03
             598               1         2.62353         2.41538    -277.617E-03              0.    -316.873E-03
             599               1         2.15626        -1.49294    -74.7991E-03              0.    -917.728E-03
             600               1         3.33878         3.26766    -101.702E-03              0.    -205.908E-03
             601               1         1.06130        -1.03687     45.5919E-03              0.    -25.2634E-03
             602               1         1.19551        -1.24821    -298.602E-03              0.    -227.132E-03
             603               1         3.14397        -3.17280    -58.8141E-03              0.    -18.4847E-03
             604               1         2.59230         2.39239    -256.361E-03              0.     325.288E-03
             605               1     196.566E-03     190.260E-03     35.9322E-03              0.    -51.5913E-03
             606               1         2.03691         1.57602    -62.3046E-03              0.    -721.824E-03
             607               1         1.83284         1.02485    -53.7783E-03              0.    -866.211E-03
             608               1         3.10149        -3.11563    -28.6558E-03              0.     13.0449E-03
             609               1         3.19196         3.17231    -13.4468E-03              0.    -165.523E-03
             610               1         2.32232         2.36171     88.2175E-03              0.     73.1534E-03
             611               1         2.58208         2.40862    -102.554E-03              0.    -450.247E-03
             612               1         2.44295        -2.49520    -116.571E-03              0.    -80.1081E-03
             613               1         3.39825         3.36963    -45.7303E-03              0.     111.864E-03
             614               1         2.10967        -2.13694    -56.5744E-03              0.    -25.0709E-03
             615               1         2.61312         2.52722    -151.400E-03              0.     109.532E-03
             616               1         1.57100     669.389E-03        -1.07811              0.    -212.881E-03
             617               1         2.26396        -2.39392    -336.152E-03              0.     169.709E-03
             618               1         1.49860    -572.069E-03    -219.490E-03              0.     815.662E-03
             619               1         1.69999    -174.199E-03    -479.398E-03              0.     951.021E-03
             620               1         2.68942        -2.12572    -210.360E-03              0.         1.01935
             621               1         1.22761        -1.16149     98.4942E-03              0.    -106.249E-03
             622               1         3.29565         3.20761    -104.613E-03              0.     274.467E-03
             623               1         3.37648        -3.56598    -525.733E-03              0.    -307.015E-03
             624               1     733.148E-03    -26.2470E-03    -642.035E-03              0.     217.147E-03
             625               1         3.24259         3.20973    -41.4584E-03              0.    -160.447E-03
             626               1         2.36664         2.40662     83.3003E-03              0.     29.8546E-03
             627               1         3.19617        -3.28167    -182.705E-03              0.    -64.2285E-03
             628               1         1.85212         1.04111    -46.3772E-03              0.     874.835E-03
             629               1         2.59498         2.38019    -228.334E-03              0.     397.077E-03
             630               1         1.27795     187.548E-03        -1.15064              0.    -139.308E-03
             631               1     822.358E-03    -84.9442E-03    -763.180E-03              0.     224.678E-03
             632               1         1.33176    -218.451E-03    -206.162E-03              0.    -759.032E-03
             633               1         2.38163         2.11875    -95.9880E-03              0.     568.759E-03
             634               1     793.650E-03    -161.782E-03    -504.757E-03              0.    -378.853E-03
             635               1         1.37123         1.31972    -97.3559E-03              0.     14.9114E-03
             636               1         2.18007        -2.26308    -190.877E-03              0.     94.3409E-03
             637               1         2.27729        -2.23702     74.6102E-03              0.    -55.6999E-03
             638               1         2.38209        -2.34859     65.4101E-03              0.     13.5366E-03
             639               1         3.07080        -3.10351    -66.6923E-03              0.    -13.5516E-03
             640               1         2.16077        -2.12362     70.0022E-03              0.    -43.2066E-03
             641               1         1.94888    -434.163E-03    -224.834E-03              0.         1.10404
             642               1         1.28877        -1.29609    -50.5514E-03              0.    -121.153E-03
             643               1         2.18835     174.292E-03    -739.410E-03              0.         1.16661
             644               1         2.81757        -2.46914        -2.12180              0.    -927.184E-03
             645               1     979.656E-03     33.1429E-03    -267.797E-03              0.    -540.998E-03
             646               1         1.15412    -330.515E-03    -379.972E-03              0.    -633.497E-03
             647               1         2.20607         1.57207    -67.8585E-03              0.     872.553E-03
             648               1         1.89648         1.26958    -64.2322E-03              0.     795.640E-03
             649               1     59.3776E-03    -54.8599E-03     5.30718E-03              0.    -8.09881E-03
             650               1     44.7726E-03    -36.7703E-03    -31.7458E-03              0.     16.4524E-03
             651               1         2.65543         2.44636    -158.814E-03              0.    -466.508E-03
             652               1         3.14005        -3.11766     32.3992E-03              0.    -112.615E-03
             653               1     414.422E-03    -96.1523E-03    -349.110E-03              0.    -157.258E-03
             654               1     44.2824E-03    -37.1868E-03    -31.2109E-03              0.    -15.9644E-03
             655               1         1.90449     754.047E-03    -136.660E-03              0.     989.409E-03
             656               1     953.210E-03     296.849E-03    -657.526E-03              0.     253.617E-03
             657               1         2.27378        -2.23003     72.3432E-03              0.     100.770E-03
             658               1         1.28447         1.27092    -17.7925E-03              0.     62.4519E-03
             659               1         1.33207        -1.29842    -15.2795E-03              0.     189.849E-03
             660               1     255.150E-03     175.229E-03     5.11320E-03              0.     108.422E-03
             661               1         2.11335         1.77458    -168.157E-03              0.    -574.582E-03
             662               1     57.6240E-03    -43.7171E-03    -42.7998E-03              0.     21.9742E-03
             663               1     138.373E-03    -12.4608E-03    -136.485E-03              0.    -26.2315E-03
             664               1         1.79290    -920.220E-03    -88.2055E-03              0.    -902.050E-03
             665               1         3.30440         3.21078    -119.172E-03              0.    -266.525E-03
             666               1     317.276E-03     16.6548E-03    -306.640E-03              0.    -20.4266E-03
             667               1         3.48295        -3.72696        -1.04310              0.     588.850E-03
             668               1         3.37537        -3.57326    -557.134E-03              0.     319.024E-03
             669               1         3.34002         3.30580    -49.0870E-03              0.     144.611E-03
             670               1         3.39389         3.32278    -129.903E-03              0.    -98.4856E-03
             671               1         2.45554         2.44456    -19.6424E-03              0.    -42.3137E-03
             672               1         2.23342         1.17400    -403.146E-03              0.    -995.669E-03
             673               1         2.58799         2.42680    -156.018E-03              0.    -367.593E-03
             674               1         1.44608        -1.66332    -944.867E-03              0.    -33.4747E-03
             675               1         2.42416        -2.60315        -1.63984              0.    -476.043E-03
             676               1         2.48504         2.44916    -67.5450E-03              0.     48.5232E-03
             677               1         3.34753         3.32094    -37.4495E-03              0.    -131.118E-03
             678               1         3.10329        -3.10772    -9.36144E-03              0.     22.5827E-03
             679               1         3.38585         3.34590    -69.3745E-03              0.    -103.285E-03
             680               1         2.59586         2.54073    -90.6029E-03              0.    -122.199E-03
             681               1         2.51058     355.795E-03    -661.207E-03              0.         1.35450
             682               1         1.14820    -326.170E-03    -387.406E-03              0.     629.354E-03
             683               1         2.13170    -120.644E-03    -228.282E-03              0.        -1.22543
             684               1     125.675E-03    -66.3124E-03    -133.400E-03              0.    -28.5613E-03
             685               1     49.4025E-03    -50.2430E-03    -48.0147E-03              0.     2.78291E-03
             686               1         1.18236        -1.17935    -3.22233E-03              0.     60.3246E-03
             687               1         2.16118     721.958E-03    -281.647E-03              0.        -1.13531
             688               1         2.03137     524.767E-03    -354.876E-03              0.        -1.08612
             689               1         2.62662         2.39423    -271.884E-03              0.    -383.805E-03
             690               1         2.57251         2.43063    -263.354E-03              0.     11.6889E-03
             691               1         1.78712    -904.955E-03    -87.9827E-03              0.     903.097E-03
             692               1         2.21954        -1.45652    -918.898E-03              0.        -1.04864
             693               1         2.30370    -488.734E-03    -200.370E-03              0.         1.30715
             694               1         2.56954         2.45124    -220.905E-03              0.    -34.9581E-03
             695               1     215.850E-03     40.7008E-03    -44.4183E-03              0.    -117.124E-03
             696               1         1.53026        -1.54441    -38.4620E-03              0.     69.2954E-03
             697               1         2.10036    -68.0388E-03    -177.274E-03              0.        -1.20934
             698               1         1.93250     615.126E-03    -114.565E-03              0.        -1.04444
             699               1         2.38695         2.40214     57.1801E-03              0.    -143.019E-03
             700               1         3.17331         3.14483    -12.7060E-03              0.     215.868E-03
             701               1         3.48060         3.40474    -146.663E-03              0.     22.0841E-03
             702               1         3.22603         3.20510    -14.2245E-03              0.    -172.055E-03
             703               1         2.12935        -2.09391     69.1905E-03              0.    -3.95135E-03
             704               1         1.20348         1.18465    -32.3144E-03              0.     43.3393E-03
             705               1         1.61293    -579.233E-03    -153.303E-03              0.     881.536E-03
             706               1         3.14184        -3.17186    -61.0118E-03              0.     9.40471E-03
             707               1     135.886E-03    -13.1251E-03    -134.645E-03              0.     25.3685E-03
             708               1     121.292E-03    -52.8227E-03    -127.700E-03              0.     28.0467E-03
             709               1     57.8308E-03    -43.9067E-03    -41.7230E-03              0.    -22.4181E-03
             710               1         2.54517         2.35981    -116.067E-03              0.     455.279E-03
             711               1         2.14281    -791.434E-03    -125.118E-03              0.        -1.16170
             712               1         2.54853         2.34198    -159.295E-03              0.     451.544E-03
             713               1         1.87588         1.53213    -495.376E-03              0.    -236.030E-03
             714               1         1.97717        -1.22368    -60.5574E-03              0.     909.621E-03
             715               1         2.05173        -1.29313    -55.5082E-03              0.     932.040E-03
             716               1         1.57911     667.275E-03        -1.08890              0.     212.940E-03
             717               1         2.15192     358.284E-03        -1.63684              0.     642.058E-03
             718               1         2.55290         2.42241    -167.206E-03              0.     268.461E-03
             719               1         2.43849        -1.84993    -185.604E-03              0.     971.745E-03
             720               1         2.18898        -2.16479     41.6965E-03              0.     66.5485E-03
             721               1         1.27075        -1.26483    -11.1126E-03              0.    -98.2582E-03
             722               1         2.58294        -2.54188        -2.55374              0.    -245.058E-03
             723               1         2.38468        -2.50304        -2.24128              0.    -52.2617E-03
             724               1         2.18461     523.562E-03    -593.301E-03              0.        -1.13075
             725               1         2.00543        -1.83961        -1.48011              0.     624.413E-03
             726               1         2.19775         1.85648    -71.9334E-03              0.     644.176E-03
             727               1         3.17346         3.04576    -70.5641E-03              0.     437.527E-03
             728               1         2.60705         2.37024    -172.001E-03              0.     497.122E-03
             729               1         2.54937         2.54601    -4.64939E-03              0.    -41.7309E-03
             730               1         2.18235     68.3001E-03    -385.706E-03              0.         1.23597
             731               1         2.42362        -2.62941    -643.778E-03              0.     281.907E-03
             732               1         2.97996        -2.37592        -3.04777              0.     629.161E-03
             733               1         2.75792        -2.44704        -2.09410              0.     886.418E-03
             734               1         2.61220         2.17484    -276.091E-03              0.     687.265E-03
             735               1         2.02471        -1.67989        -2.16089              0.     281.677E-03
             736               1         2.59920         2.54526    -86.5565E-03              0.     128.675E-03
             737               1         3.38958         3.34351    -85.4995E-03              0.     75.3387E-03
             738               1         1.89247    -105.652E-03    -354.487E-03              0.         1.07735
             739               1         1.28458         1.24206    -72.7059E-03              0.    -62.8354E-03
             740               1         1.39663        -1.60658    -743.598E-03              0.    -61.0601E-03
             741               1         2.25691        -2.20794     87.7509E-03              0.     75.7462E-03
             742               1         3.07720        -3.09154    -30.4565E-03              0.    -39.8737E-03
             743               1         3.11586        -3.16858    -110.045E-03              0.    -41.8353E-03
             744               1         2.23874        -2.20183     68.7355E-03              0.    -51.0604E-03
             745               1         2.25628        -2.22560     57.3562E-03              0.    -46.7563E-03
             746               1         3.27028        -3.40505    -313.341E-03              0.     151.788E-03
             747               1         2.37484        -2.37611    -3.79134E-03              0.    -31.3148E-03
             748               1         3.30273         3.30760     10.0635E-03              0.    -18.0784E-03
             749               1         2.40600         2.40346    -3.75939E-03              0.    -32.2834E-03
             750               1         2.73882        -1.73269    -466.432E-03              0.        -1.30250
             751               1         2.12127        -1.88308        -1.62203              0.    -677.552E-03
             752               1         2.52475        -1.12749    -749.570E-03              0.        -1.33995
             753               1         2.76606        -2.25394        -1.08681              0.        -1.13126
             754               1         4.29324        -3.43333        -2.43681              0.        -1.73901
             755               1         2.55459         2.45759    -131.037E-03              0.    -221.343E-03
             756               1         3.16692        -3.13549     52.5947E-03              0.     100.703E-03
             757               1         2.25451        -2.24645     14.7387E-03              0.    -31.1930E-03
             758               1     353.397E-03    -104.388E-06    -352.964E-03              0.     10.6896E-03
             759               1     53.1175E-03    -47.8297E-03    -57.1395E-03              0.     781.196E-06
             760               1     127.289E-03    -66.5196E-03    -134.960E-03              0.     29.1033E-03
             761               1         1.61319    -613.985E-03    -153.562E-03              0.    -874.852E-03
             762               1         2.40283     314.778E-03        -1.35210              0.        -1.06782
             763               1         2.36634     946.713E-03        -1.06188              0.    -925.638E-03
             764               1         2.30270        -1.12903    -182.990E-03              0.        -1.18333
             765               1     51.1375E-03    -50.8647E-03    -50.7806E-03              0.    -3.27115E-03
             766               1         2.13965     352.775E-03        -1.63306              0.    -635.268E-03
             767               1         2.26559        -1.33207    -462.960E-03              0.         1.11965
             768               1         2.09526         1.16990    -121.713E-03              0.    -977.113E-03
             769               1         1.84901     753.872E-03    -108.587E-03              0.    -958.623E-03
             770               1         2.05550        -1.30990    -58.8209E-03              0.    -927.873E-03
             771               1         1.96978        -1.20248    -51.1511E-03              0.    -911.584E-03
             772               1         1.91092         1.31043    -50.7766E-03              0.    -788.516E-03
             773               1         2.21069         1.57655    -68.2797E-03              0.    -873.564E-03
             774               1         2.11725         2.07641    -39.9833E-03              0.    -169.973E-03
             775               1         2.27797         1.44597    -124.235E-03              0.     983.738E-03
             776               1         2.20124     652.338E-03    -173.393E-03              0.         1.19398
             777               1         2.48654         2.43175    -84.9596E-03              0.     136.178E-03
             778               1         1.99402    -520.399E-03    -216.440E-03              0.        -1.12118
             779               1         2.44596        -2.66146        -1.00026              0.     432.431E-03
             780               1         2.13578         1.68722    -254.464E-03              0.     637.898E-03
             781               1         1.44326        -1.65910    -909.415E-03              0.    -63.7166E-03
             782               1         1.95418         1.54554    -503.361E-03              0.    -364.607E-03
             783               1         1.99190     403.048E-03    -141.219E-03              0.        -1.11480
             784               1         2.18166        -1.06315    -241.309E-03              0.        -1.12955
             785               1         2.52274         2.01778    -206.587E-03              0.     781.716E-03
             786               1         1.81758        -2.06441        -1.35019              0.     45.1582E-03
             787               1         1.70439    -185.452E-03    -464.088E-03              0.    -955.900E-03
             788               1         2.20494         1.16870    -95.0146E-03              0.         1.06079
             789               1         1.75259         1.64796    -158.100E-03              0.    -153.036E-03
             790               1         2.32938    -40.9233E-03    -390.357E-03              0.         1.32764
             791               1         2.45691        -2.59949        -1.91340              0.     444.153E-03
             792               1         1.86038        -2.09671        -1.44776              0.    -38.0812E-03
             793               1         2.48527        -1.38381    -255.128E-03              0.        -1.23148
             794               1         2.47621        -2.72291        -1.00456              0.    -384.516E-03
             795               1         2.20223     876.637E-03    -115.789E-03              0.        -1.14984
             796               1         1.97971    -439.338E-03    -189.647E-03              0.        -1.12155
             797               1         1.88477    -109.519E-03    -339.659E-03              0.        -1.07428
             798               1         2.18936     25.4078E-03    -373.245E-03              0.        -1.24416
             799               1         2.25464        -2.22918     49.7882E-03              0.    -15.2384E-03
             800               1         1.69358     607.827E-03    -715.219E-03              0.    -719.375E-03
             801               1         1.63135     263.071E-03    -438.261E-03              0.    -872.684E-03
             802               1         1.40797     175.451E-03    -889.022E-03              0.     578.866E-03
             803               1         1.90055     57.2122E-03        -1.04161              0.    -906.325E-03
             804               1         2.21936         1.02186    -211.003E-03              0.        -1.09867
             805               1         1.13359        -1.10651     43.0869E-03              0.    -60.9078E-03
             806               1         2.10708        -2.07336     14.8397E-03              0.    -191.463E-03
             807               1         1.43253        -1.59555    -452.511E-03              0.     88.7175E-03
             808               1         2.11719        -2.09448     17.5838E-03              0.    -139.673E-03
             809               1         2.19264        -2.19632    -10.3678E-03              0.    -46.5994E-03
             810               1         1.54768        -1.61442    -149.908E-03              0.    -53.1832E-03
             811               1         2.16968     449.875E-03    -533.177E-03              0.         1.15195
             812               1         1.46913         1.39833    -100.706E-03              0.    -131.723E-03
             813               1         2.40501        -2.30707     185.098E-03              0.     8.02118E-03
             814               1         2.36950     387.775E-03    -363.121E-03              0.         1.31548
             815               1         2.09208     174.863E-03    -290.171E-03              0.         1.18480
             816               1         2.38526        -2.55301    -497.015E-03              0.    -253.945E-03
             817               1         1.91429     59.7655E-03        -1.05126              0.     911.587E-03
             818               1         1.64235     272.467E-03    -444.641E-03              0.     876.397E-03
             819               1         1.75193         1.46851    -411.223E-03              0.     215.828E-03
             820               1         1.95722         1.12306    -134.244E-03              0.    -894.553E-03
             821               1         1.26477         1.29253     58.6177E-03              0.     20.9842E-03
             822               1         2.13965        -2.07980     43.8806E-03              0.     230.445E-03
             823               1         1.40272     178.208E-03    -882.257E-03              0.    -577.424E-03
             824               1         1.34503     8.81378E-03    -700.759E-03              0.    -661.259E-03
             825               1         2.50181        -1.42141    -253.346E-03              0.         1.22944
             826               1         1.69659     601.526E-03    -725.343E-03              0.     719.758E-03
             827               1         1.93759     342.536E-03    -188.503E-03              0.         1.08579
             828               1         2.21440        -1.27563    -448.009E-03              0.        -1.10259
             829               1         2.98907        -2.06822    -911.482E-03              0.        -1.37978
             830               1         2.24864     581.313E-03    -192.980E-03              0.        -1.23411
             831               1         2.07072     219.483E-03    -287.840E-03              0.        -1.16814
             832               1         2.28810         1.48093    -111.609E-03              0.    -977.157E-03
             833               1         1.91040     875.447E-03    -118.484E-03              0.    -960.113E-03
             834               1         1.75751     895.732E-03    -472.973E-03              0.     739.175E-03
             835               1         1.01837        -1.02711    -19.3669E-03              0.     23.3910E-03
             836               1         2.01044     529.984E-03    -134.778E-03              0.         1.10626
             837               1         1.97453     555.823E-03    -130.127E-03              0.         1.08021
             838               1         2.22911    -223.700E-03    -218.040E-03              0.         1.28064
             839               1         2.26348     558.970E-03    -198.317E-03              0.         1.24642
             840               1         2.04815    -584.290E-03    -95.1262E-03              0.        -1.14018
             841               1         2.73449        -1.75070    -480.802E-03              0.         1.29396
             842               1         1.94289         1.14619    -118.716E-03              0.     877.671E-03
             843               1         1.36316         1.36152     1.78615E-03              0.    -48.0120E-03
             844               1         2.19720    -621.828E-03    -220.230E-03              0.        -1.22875
             845               1     741.616E-03     68.1586E-03    -672.151E-03              0.     126.159E-03
             846               1         1.27588    -98.8055E-03    -824.142E-03              0.     583.190E-03
             847               1         2.06974    -835.866E-03    -124.148E-03              0.         1.10657
             848               1         2.03650    -611.460E-03    -120.406E-03              0.         1.13028
             849               1         2.30192        -1.08712    -135.785E-03              0.         1.18970
             850               1         2.44094    -757.662E-03    -409.735E-03              0.        -1.35729
             851               1         2.39875         2.38060    -33.6865E-03              0.    -42.4183E-03
             852               1         2.25619     904.680E-03    -319.235E-03              0.         1.13743
             853               1         1.06670        -1.14405    -234.550E-03              0.     118.774E-03
             854               1         2.50556    -976.847E-03    -455.537E-03              0.         1.36150
             855               1         1.08523        -1.08417     757.811E-06              0.    -22.1211E-03
             856               1         2.16575         2.09626    -85.9099E-03              0.     190.343E-03
             857               1         1.04217        -1.01767     39.0961E-03              0.    -55.2478E-03
             858               1         2.27707     302.725E-03    -134.122E-03              0.        -1.29548
             859               1         1.93647         1.36093    -164.864E-03              0.    -740.772E-03
             860               1         2.39981         1.74431    -190.918E-03              0.    -884.498E-03
             861               1         2.26798     177.877E-03    -321.091E-03              0.         1.28477
             862               1         2.12399    -761.251E-03    -142.604E-03              0.         1.15759
             863               1         1.97060    -353.272E-03    -186.871E-03              0.         1.12391
             864               1         2.57525         2.47051    -187.606E-03              0.     99.7516E-03
             865               1         2.20830     886.279E-03    -109.905E-03              0.         1.15205
             866               1         1.48446         1.35119    -217.216E-03              0.    -111.395E-03
             867               1         1.09714        -1.18193    -346.927E-03              0.     179.297E-03
             868               1         1.23863         1.22561     45.1950E-03              0.    -168.755E-03
             869               1         1.91641         1.59267    -269.959E-03              0.     459.413E-03
             870               1         3.05833        -2.23992        -1.42005              0.         1.35406
             871               1         2.03549         1.49986    -151.763E-03              0.     740.047E-03
             872               1         2.03425         1.58560    -184.464E-03              0.     657.658E-03
             873               1         1.61823         1.59572    -27.6680E-03              0.     95.6486E-03
             874               1         1.47308        -1.55302    -184.555E-03              0.    -59.5966E-03
             875               1         2.36146        -1.61986        -1.90682              0.     895.427E-03
             876               1         2.24084        -1.50099    -860.643E-03              0.         1.05191
             877               1         2.96210        -2.04162    -855.042E-03              0.         1.36875
             878               1         2.22329         1.79384    -263.957E-03              0.    -627.690E-03
             879               1         1.18961         1.22174     73.6589E-03              0.     48.6095E-03
             880               1         1.56263     77.1156E-03    -511.080E-03              0.    -843.651E-03
             881               1         1.49114        -1.63929    -363.624E-03              0.    -4.90374E-03
             882               1         1.12140        -1.10439     18.0894E-03              0.     76.5153E-03
             883               1         2.26621    -86.4467E-03    -96.6035E-03              0.        -1.30732
             884               1         1.16868        -1.15586     22.8389E-03              0.     30.9594E-03
             885               1         2.24619    -145.768E-03    -126.143E-03              0.        -1.29442
             886               1         3.06142        -2.20051        -1.51110              0.        -1.36282
             887               1         2.11011        -1.56162        -1.76953              0.    -740.725E-03
             888               1         1.92769         1.65697    -232.618E-03              0.    -420.674E-03
             889               1         1.30643         1.33007     62.3303E-03              0.     74.5668E-03
             890               1         1.65651    -652.124E-03    -704.826E-03              0.    -872.085E-03
             891               1         1.41177         1.41149     7.33526E-03              0.    -60.8629E-03
             892               1     657.832E-03     466.192E-03    -177.313E-03              0.    -183.763E-03
             893               1         1.27383         1.27874     10.9509E-03              0.    -21.2016E-03
             894               1         1.70495    -846.608E-03        -1.19615              0.    -768.551E-03
             895               1     367.946E-03     296.573E-03     84.0476E-03              0.    -147.525E-03
             896               1         1.12858     558.755E-03    -617.315E-03              0.     280.162E-03
             897               1         1.20175         1.16854    -63.7945E-03              0.    -5.64301E-03
             898               1         2.24172     492.023E-03    -132.496E-03              0.        -1.25173
             899               1         1.18568        -1.29890    -615.119E-03              0.     215.486E-03
             900               1         2.15181        -1.30515        -1.44310              0.    -953.550E-03
             901               1         1.44632        -1.34630        -1.24865              0.    -365.714E-03
             902               1         2.09699    -42.9397E-03    -132.915E-03              0.         1.20880
             903               1         2.14530     14.6381E-03    -172.712E-03              0.         1.23420
             904               1     171.485E-03     52.5525E-03    -10.6443E-03              0.     93.0457E-03
             905               1         2.27870     120.814E-03    -168.391E-03              0.         1.30756
             906               1         1.91025        -1.30439        -1.01103              0.     864.917E-03
             907               1         1.99247     98.8613E-03    -198.652E-03              0.        -1.14033
             908               1         1.93119    -465.713E-03    -387.213E-03              0.        -1.08674
             909               1         1.95061     501.491E-03    -192.803E-03              0.        -1.06764
             910               1         2.22366     726.640E-03    -175.410E-03              0.        -1.19142
             911               1         1.59787    -638.131E-03    -905.747E-03              0.     796.572E-03
             912               1         2.18895    -537.358E-03    -878.896E-03              0.         1.18358
             913               1         1.45103    -954.671E-03        -1.45181              0.    -396.799E-03
             914               1         1.41756        -1.58548        -1.09409              0.     105.412E-03
             915               1         2.38246    -697.565E-03    -258.874E-03              0.         1.32955
             916               1         2.01912    -361.137E-03    -214.472E-03              0.         1.15150
             917               1         1.23361     792.069E-03    -310.436E-03              0.    -429.020E-03
             918               1         1.33535        -1.45394    -847.059E-03              0.    -247.163E-03
             919               1         1.37219     687.258E-03    -443.510E-03              0.     550.475E-03
             920               1     689.733E-03    -651.339E-03    -177.628E-03              0.    -212.629E-03
             921               1     390.497E-03     267.753E-03     28.4235E-03              0.     170.879E-03
             922               1         1.71241         1.49048    -348.389E-03              0.     152.945E-03
             923               1         1.90584         1.51249    -442.907E-03              0.     399.394E-03
             924               1         2.38218         2.34666    -63.8450E-03              0.    -68.5781E-03
             925               1         1.48142        -1.59181    -291.577E-03              0.    -115.278E-03
             926               1     640.363E-03    -648.543E-03    -523.723E-03              0.     135.188E-03
             927               1         1.70818     158.576E-03    -786.016E-03              0.     846.613E-03
             928               1     149.297E-03     62.2099E-03    -93.1248E-03              0.     36.3046E-03
             929               1         1.44883         1.35338    -175.005E-03              0.     970.244E-06
             930               1     531.639E-03    -449.243E-03    -77.1466E-03              0.     191.073E-03
             931               1         2.59463        -1.20936    -799.579E-03              0.         1.36592
             932               1         2.16411         1.52743    -354.510E-03              0.     749.037E-03
             933               1         1.99313    -585.459E-03    -420.003E-03              0.         1.11045
             934               1     476.882E-03     38.2586E-03    -298.553E-03              0.    -204.448E-03
             935               1         1.13500        -1.16485    -119.346E-03              0.    -136.786E-03
             936               1         2.26527    -226.380E-03    -581.650E-03              0.        -1.27456
             937               1     163.048E-03     128.612E-03     25.0612E-03              0.    -64.9065E-03
             938               1         1.34654     725.351E-03    -441.644E-03              0.     507.159E-03
             939               1         1.03880        -1.07942    -96.6665E-03              0.     54.6324E-03
             940               1         2.15394    -408.047E-03        -1.00021              0.        -1.13735
             941               1         1.92836     486.524E-03    -276.188E-03              0.        -1.04423
             942               1         1.93684     470.128E-03    -326.921E-03              0.        -1.04399
             943               1         1.76157    -908.034E-03        -1.58689              0.     632.803E-03
             944               1         1.82281    -708.786E-03    -646.617E-03              0.    -976.465E-03
             945               1         2.53356        -1.36534        -1.14869              0.        -1.26539
             946               1     858.930E-03    -792.406E-03    -744.224E-03              0.    -220.388E-03
             947               1         1.45567        -1.62370    -564.074E-03              0.     163.604E-03
             948               1         1.79913    -740.162E-03    -717.275E-03              0.     949.641E-03
             949               1         2.06322         1.60813    -367.504E-03              0.     561.172E-03
             950               1         2.34043    -432.532E-03    -642.145E-03              0.         1.31097
             951               1         1.74057     169.818E-03    -382.559E-03              0.     964.265E-03
             952               1         1.77188     90.9019E-03    -604.845E-03              0.     950.521E-03
             953               1     338.669E-03     21.4860E-03    -259.231E-03              0.     117.565E-03
             954               1         2.23103         1.39827    -386.183E-03              0.    -881.899E-03
             955               1         2.05396    -293.459E-03    -267.957E-03              0.        -1.17466
             956               1         2.27663     164.927E-03    -387.734E-03              0.        -1.28343
             957               1         2.19267     592.204E-03    -83.8193E-03              0.         1.21112
             958               1         2.19037    -38.0269E-03    -197.333E-03              0.         1.26027
             959               1     714.565E-03    -134.321E-03    -391.499E-03              0.    -361.421E-03
             960               1     919.796E-03    -632.324E-03        -1.05507              0.    -7.28590E-03
             961               1         1.80190     778.588E-03    -235.244E-03              0.     894.825E-03
             962               1         2.24315         1.15073    -348.436E-03              0.         1.03040
             963               1         1.76730     960.478E-03    -304.757E-03              0.     777.867E-03
             964               1         1.24675        -1.21296     64.7056E-03              0.     12.3070E-03
             965               1         1.28182         1.27567    -10.8491E-03              0.    -24.3013E-03
             966               1     283.422E-03     94.3550E-03    -134.588E-03              0.     116.351E-03
             967               1         1.30589    -847.815E-03        -1.30574              0.     359.912E-03
             968               1         1.84478     104.058E-03    -283.130E-03              0.         1.04607
             969               1         2.26476    -716.032E-03    -241.259E-03              0.        -1.25578
             970               1         2.25652    -31.3649E-03    -202.841E-03              0.        -1.29822
             971               1         1.76737     984.299E-03    -405.400E-03              0.    -728.327E-03
             972               1         1.99997         1.61346    -353.804E-03              0.    -483.258E-03
             973               1         1.68674     968.451E-03    -293.521E-03              0.    -715.720E-03
             974               1     153.737E-03     119.868E-03     119.962E-03              0.    -55.5440E-03
             975               1     713.422E-03     386.149E-03    -301.801E-03              0.     225.268E-03
             976               1     881.268E-03     672.560E-03    -313.444E-03              0.    -71.2737E-03
             977               1         1.36840     112.329E-03    -546.114E-03              0.    -707.179E-03
             978               1         2.00210     817.900E-03    -691.439E-03              0.     874.799E-03
             979               1     96.7615E-03     108.299E-03     50.1194E-03              0.    -13.5400E-03
             980               1     525.012E-03     442.275E-03    -85.9771E-03              0.     107.413E-03
             981               1     206.276E-03     182.339E-03     45.4410E-03              0.     71.9331E-03
             982               1         1.16309        -1.14296     35.6447E-03              0.    -38.3371E-03
             983               1         2.06879     485.495E-03    -626.997E-03              0.        -1.05620
             984               1     487.013E-03    -538.743E-03    -408.434E-03              0.    -7.30874E-03
             985               1     936.027E-03     363.911E-03    -689.215E-03              0.     77.2134E-03
             986               1         1.00401     620.820E-03    -285.206E-03              0.     348.437E-03
             987               1         1.03171    -133.376E-03    -616.088E-03              0.     499.750E-03
             988               1     877.979E-03    -548.026E-03    -961.649E-03              0.     155.729E-03
             989               1     90.2254E-03    -37.1938E-03    -61.9165E-03              0.     41.7393E-03
             990               1     117.518E-03     16.1322E-03     98.6752E-03              0.    -42.4475E-03
             991               1         1.44068     726.830E-03    -593.562E-03              0.    -504.496E-03
             992               1         1.21313     535.516E-03    -793.562E-03              0.    -208.335E-03
             993               1         1.39228    -138.932E-03        -1.10558              0.    -532.425E-03
             994               1         1.07872    -690.046E-03    -630.755E-03              0.    -491.553E-03


  Minimum                            21.0743E-03        -8.53330        -11.2345              0.        -4.17318
      At Element                              47             311             319             994              20
          Int Pt                               1               1               1               1               1

  Maximum                                10.3622         5.09511     185.098E-03              0.         4.16282
      At Element                              20             272             813             994             248
          Int Pt                               1               1               1               1               1

           Total                     2.33478E+03         6.30833        -338.241              0.     201.454E-03


********************************************************************************
Field Output Report, written Wed Jun 12 09:46:02 2019

Source 1
---------

   ODB: C:/Users/maduguls/Desktop/sashi/tuss_shell/auto_inp.odb
   Step: Step-1
   Frame: Increment      1: Step Time =   2.2200E-16

Loc 1 : Integration point values from source 1

Output sorted by column "Element Label".

Field Output reported at integration points for part: PART-1-1

   Element Label             Int         S.Mises           S.S11           S.S22           S.S33           S.S12
                              Pt          @Loc 1          @Loc 1          @Loc 1          @Loc 1          @Loc 1
-----------------------------------------------------------------------------------------------------------------
               1               1     38.1026E-03     19.0513E-03     19.0513E-03              0.    -19.0513E-03
               2               1         1.30208    -875.685E-03    -459.081E-03              0.    -610.967E-03
               3               1     42.2851E-03     21.1425E-03     21.1425E-03              0.     21.1425E-03
               4               1     38.4042E-03     19.2021E-03     19.2021E-03              0.     19.2021E-03
               5               1         3.16477        -3.41324    -671.602E-03              0.    -262.594E-03
               6               1         1.60443    -115.634E-03        -1.50179              0.    -399.627E-03
               7               1         2.99252        -2.53669    -622.882E-03              0.         1.11242
               8               1     821.515E-03     415.046E-03    -9.85208E-03              0.     407.610E-03
               9               1         2.16038     822.047E-03    -418.482E-03              0.         1.07585
              10               1     575.211E-03    -60.5385E-03    -399.115E-03              0.    -253.029E-03
              11               1     81.0944E-03    -37.3501E-03    -23.3937E-03              0.    -42.8476E-03
              12               1         3.28812         3.37782     187.551E-03              0.    -11.0479E-03
              13               1         1.45374    -100.516E-03    -133.781E-03              0.     836.421E-03
              14               1         1.43909    -109.133E-03    -151.256E-03              0.    -827.185E-03
              15               1         3.23576        -3.32656    -190.001E-03              0.     5.04651E-03
              16               1         2.86382         2.54084    -246.501E-03              0.    -594.002E-03
              17               1         2.88004         2.55526    -242.324E-03              0.     602.038E-03
              18               1     86.9533E-03    -38.6271E-03    -32.9086E-03              0.     45.6691E-03
              19               1     568.507E-03    -49.6373E-03    -394.280E-03              0.     248.227E-03
              20               1         3.29211        -3.38345    -191.090E-03              0.     10.0420E-03
              21               1     183.229E-03    -91.7827E-03    -208.371E-03              0.    -16.8849E-03
              22               1     156.145E-03     68.0707E-03     169.819E-03              0.    -28.6872E-03
              23               1     175.892E-03     68.5201E-03     195.908E-03              0.     20.7083E-03
              24               1     42.5168E-03     21.2584E-03     21.2584E-03              0.    -21.2584E-03
              25               1     886.622E-03     392.984E-03    -167.903E-03              0.     423.276E-03
              26               1     163.913E-03    -60.3803E-03    -181.082E-03              0.    -21.3284E-03
              27               1         1.50593     20.6897E-03        -1.26853              0.    -458.979E-03
              28               1     806.723E-03     407.074E-03    -8.23955E-03              0.    -400.695E-03
              29               1         3.14552        -3.39477    -672.201E-03              0.     258.169E-03
              30               1         2.15453     803.255E-03    -419.421E-03              0.        -1.07765
              31               1         1.62661    -113.648E-03        -1.52566              0.     399.464E-03
              32               1         1.29035    -853.007E-03    -458.841E-03              0.     610.529E-03
              33               1         1.52078    -46.3826E-03     23.9723E-03              0.     877.295E-03
              34               1         1.48648     4.59113E-03        -1.27916              0.     434.918E-03
              35               1         3.48959         3.36872    -196.869E-03              0.     205.723E-03
              36               1         1.52343    -52.0761E-03     28.1523E-03              0.    -878.608E-03
              37               1         3.01152        -2.55056    -624.490E-03              0.        -1.12052
              38               1         3.50389         3.38313    -198.781E-03              0.    -199.682E-03
              39               1     864.921E-03     409.380E-03    -161.067E-03              0.    -403.574E-03
              40               1     496.956E-03    -35.2981E-03    -347.649E-03              0.    -213.799E-03
              41               1     145.809E-03     37.1919E-03     153.778E-03              0.     25.4869E-03
              42               1     503.699E-03    -45.6636E-03    -351.521E-03              0.     219.175E-03
              43               1         3.34608         3.43636     188.542E-03              0.    -3.67557E-03
              44               1     166.240E-03    -57.1458E-03    -184.675E-03              0.     16.5198E-03
              45               1     95.0137E-03    -42.2095E-03    -34.7382E-03              0.    -50.0183E-03
              46               1     87.8361E-03    -41.2489E-03    -21.0828E-03              0.     46.3281E-03


  Minimum                            38.1026E-03        -3.41324        -1.52566              0.        -1.12052
      At Element                               1               5              31              46              37
          Int Pt                               1               1               1               1               1

  Maximum                                3.50389         3.43636     195.908E-03              0.         1.11242
      At Element                              38              43              23              46               7
          Int Pt                               1               1               1               1               1

           Total                         64.3091     760.420E-03        -12.9702              0.     5.55175E-03


********************************************************************************
Field Output Report, written Wed Jun 12 09:46:03 2019

Source 1
---------

   ODB: C:/Users/maduguls/Desktop/sashi/tuss_shell/auto_inp.odb
   Step: Step-1
   Frame: Increment      1: Step Time =   2.2200E-16

Loc 1 : Integration point values from source 1

Output sorted by column "Element Label".

Field Output reported at integration points for part: PART-1-1

   Element Label             Int         S.Mises           S.S11           S.S22           S.S33           S.S12
                              Pt          @Loc 1          @Loc 1          @Loc 1          @Loc 1          @Loc 1
-----------------------------------------------------------------------------------------------------------------
               1               1     38.1026E-03     19.0513E-03     19.0513E-03              0.    -19.0513E-03
               2               1         1.30208    -875.685E-03    -459.081E-03              0.    -610.967E-03
               3               1     42.2851E-03     21.1425E-03     21.1425E-03              0.     21.1425E-03
               4               1     38.4042E-03     19.2021E-03     19.2021E-03              0.     19.2021E-03
               5               1         3.16477        -3.41324    -671.602E-03              0.    -262.594E-03
               6               1         1.60443    -115.634E-03        -1.50179              0.    -399.627E-03
               7               1         2.99252        -2.53669    -622.882E-03              0.         1.11242
               8               1     821.515E-03     415.046E-03    -9.85208E-03              0.     407.610E-03
               9               1         2.16038     822.047E-03    -418.482E-03              0.         1.07585
              10               1     575.211E-03    -60.5385E-03    -399.115E-03              0.    -253.029E-03
              11               1     81.0944E-03    -37.3501E-03    -23.3937E-03              0.    -42.8476E-03
              12               1         3.28812         3.37782     187.551E-03              0.    -11.0479E-03
              13               1         1.45374    -100.516E-03    -133.781E-03              0.     836.421E-03
              14               1         1.43909    -109.133E-03    -151.256E-03              0.    -827.185E-03
              15               1         3.23576        -3.32656    -190.001E-03              0.     5.04651E-03
              16               1         2.86382         2.54084    -246.501E-03              0.    -594.002E-03
              17               1         2.88004         2.55526    -242.324E-03              0.     602.038E-03
              18               1     86.9533E-03    -38.6271E-03    -32.9086E-03              0.     45.6691E-03
              19               1     568.507E-03    -49.6373E-03    -394.280E-03              0.     248.227E-03
              20               1         3.29211        -3.38345    -191.090E-03              0.     10.0420E-03
              21               1     183.229E-03    -91.7827E-03    -208.371E-03              0.    -16.8849E-03
              22               1     156.145E-03     68.0707E-03     169.819E-03              0.    -28.6872E-03
              23               1     175.892E-03     68.5201E-03     195.908E-03              0.     20.7083E-03
              24               1     42.5168E-03     21.2584E-03     21.2584E-03              0.    -21.2584E-03
              25               1     886.622E-03     392.984E-03    -167.903E-03              0.     423.276E-03
              26               1     163.913E-03    -60.3803E-03    -181.082E-03              0.    -21.3284E-03
              27               1         1.50593     20.6897E-03        -1.26853              0.    -458.979E-03
              28               1     806.723E-03     407.074E-03    -8.23955E-03              0.    -400.695E-03
              29               1         3.14552        -3.39477    -672.201E-03              0.     258.169E-03
              30               1         2.15453     803.255E-03    -419.421E-03              0.        -1.07765
              31               1         1.62661    -113.648E-03        -1.52566              0.     399.464E-03
              32               1         1.29035    -853.007E-03    -458.841E-03              0.     610.529E-03
              33               1         1.52078    -46.3826E-03     23.9723E-03              0.     877.295E-03
              34               1         1.48648     4.59113E-03        -1.27916              0.     434.918E-03
              35               1         3.48959         3.36872    -196.869E-03              0.     205.723E-03
              36               1         1.52343    -52.0761E-03     28.1523E-03              0.    -878.608E-03
              37               1         3.01152        -2.55056    -624.490E-03              0.        -1.12052
              38               1         3.50389         3.38313    -198.781E-03              0.    -199.682E-03
              39               1     864.921E-03     409.380E-03    -161.067E-03              0.    -403.574E-03
              40               1     496.956E-03    -35.2981E-03    -347.649E-03              0.    -213.799E-03
              41               1     145.809E-03     37.1919E-03     153.778E-03              0.     25.4869E-03
              42               1     503.699E-03    -45.6636E-03    -351.521E-03              0.     219.175E-03
              43               1         3.34608         3.43636     188.542E-03              0.    -3.67557E-03
              44               1     166.240E-03    -57.1458E-03    -184.675E-03              0.     16.5198E-03
              45               1     95.0137E-03    -42.2095E-03    -34.7382E-03              0.    -50.0183E-03
              46               1     87.8361E-03    -41.2489E-03    -21.0828E-03              0.     46.3281E-03


  Minimum                            38.1026E-03        -3.41324        -1.52566              0.        -1.12052
      At Element                               1               5              31              46              37
          Int Pt                               1               1               1               1               1

  Maximum                                3.50389         3.43636     195.908E-03              0.         1.11242
      At Element                              38              43              23              46               7
          Int Pt                               1               1               1               1               1

           Total                         64.3091     760.420E-03        -12.9702              0.     5.55175E-03


